bcc crystal a0=3.1652 x=[1.0, 1.0, 1.0] y=[-1.0, 0.0, 1.0] z=[1.0, -2.0, 1.0] (generated by make_crystal.py)

2090 atoms
1 atom types

-30 30 xlo xhi
-30 30 ylo yhi
-4.1 4.1 zlo zhi

Masses

1 183.84


Atoms # atomic

1 1 -28.86781096065884 27.96948380186685 -1.516131198667985
2 1 -29.78296185955456 27.97309520982171 -4.100480589040932
3 1 -27.03830758666952 27.96309873281563 -4.100553021071606
4 1 -28.85557538164595 25.7241850541492 2.360466160644785
5 1 -29.78296185955456 27.97309520982171 3.652644344816068
6 1 -27.03830758666952 27.96309873281563 3.652571912785393
7 1 -28.84359666042838 23.47998711108684 -1.516045174589778
8 1 -29.77152505101592 25.72873736510965 -0.2238782824329096
9 1 -27.0245262527776 25.71581576289556 -0.2239665181049172
10 1 -27.95292113430474 27.96613498550931 1.068219532263612
11 1 -25.20995835958844 27.95817848402307 1.068157888273866
12 1 -29.76053815643794 23.48558623578807 -4.100384698415484
13 1 -27.01058326536623 23.46935068588824 -4.10048925966196
14 1 -27.93990156532097 25.71985848456349 -2.808313334581568
15 1 -25.19475013240988 25.7088380488935 -2.808392132569399
16 1 -26.12398327007607 27.96042805071391 -1.516198687267051
17 1 -23.38283052602854 27.95517354930724 -1.516246156699094
18 1 -24.29623973989483 27.95640747087959 -4.100607965864129
19 1 -21.55693149823178 27.95455089027958 -4.100638633551398
20 1 -28.83244949393817 21.2373671539353 2.360587553730717
21 1 -29.76053815643794 23.48558623578807 3.652740235441517
22 1 -27.01058326536623 23.46935068588824 3.65263567419504
23 1 -28.82297915305384 18.99690855453614 -1.515882993793531
24 1 -29.7506031261445 21.24410077258517 -0.2237475251254245
25 1 -26.9969728076797 21.22419196928105 -0.2238677940157839
26 1 -27.92693424528933 23.47455323752885 1.068294797451974
27 1 -25.17893565161825 23.45994078947713 1.06819716524491
28 1 -26.10946992479963 25.71211984542603 2.360382065782719
29 1 -23.36637104749859 25.70380335952606 2.360317213931413
30 1 -24.29623973989483 27.95640747087959 3.65251696799287
31 1 -21.55693149823178 27.95455089027958 3.652486300305601
32 1 -29.74258235792793 19.00482350339248 -4.100214819945635
33 1 -26.98446578945125 18.98097597555065 -4.100348209675362
34 1 -27.91455789081842 21.23070675502651 -2.808202663499812
35 1 -25.162896986702 21.21194433146745 -2.808320162033143
36 1 -26.09457441461366 23.46445298850242 -1.51614699247029
37 1 -23.34885951914554 23.4524265353409 -1.51623182708094
38 1 -24.28038071728477 25.70604133568592 -0.224038881257434
39 1 -21.5394419093687 25.70130428507644 -0.2240859659344708
40 1 -22.46972964398725 27.95453542137495 1.06811855904251
41 1 -19.73219724475236 27.95676227852545 1.068106062652263
42 1 -24.26369103522168 23.45590116009108 -4.100581224949354
43 1 -21.52047908680893 23.44755962643724 -4.10064781662231
44 1 -22.45272531044894 25.70219926947934 -2.808448505606791
45 1 -19.71392429225205 25.70193297219202 -2.808475448094141
46 1 -20.6444257521964 27.95527569523739 -1.516267814367869
47 1 -17.90848776133476 27.96220654065331 -1.516262399833643
48 1 -18.82022606016337 27.95905852747052 -4.100642031753285
49 1 -16.08559200106207 27.97119049944257 -4.100620713722573
50 1 -28.81640337612771 16.75929082901481 2.360794343876207
51 1 -29.74258235792793 19.00482350339248 3.652910113911365
52 1 -26.98446578945125 18.98097597555065 3.652776724181638
53 1 -28.81443341676305 14.52523787515024 -1.51563189911482
54 1 -29.73768440191002 16.7683580959075 -0.2235365002095645
55 1 -26.97423995429244 16.74050813932189 -0.2236772324638913
56 1 -27.90358745329932 18.98893460233064 1.068447345937357
57 1 -25.14727677660019 18.9654821091571 1.068310331667072
58 1 -26.07973838942479 21.21790628021888 2.360467807976672
59 1 -23.33054338801372 21.20142306342862 2.36036047677231
60 1 -24.26369103522168 23.45590116009108 3.652543708907645
61 1 -21.52047908680893 23.44755962643724 3.652477117234691
62 1 -29.73755522353225 14.53530342565763 -4.099965484472991
63 1 -26.96806145728334 14.50375595506616 -4.100103045524135
64 1 -27.89523115687976 16.74998508889677 -2.808002665988678
65 1 -25.1331240420412 16.72141857591784 -2.808156155694019
66 1 -26.06567506241705 18.97312281655778 -1.516019152372209
67 1 -23.31189246893729 18.95135209948568 -1.51615096116937
68 1 -24.24648747383117 21.20641152849747 -0.2239811794446872
69 1 -21.50014729618844 21.19357825141165 -0.2240707356803276
70 1 -22.43445376999737 23.4496132437588 1.06812084103654
71 1 -19.69380220611104 23.44612093100708 1.068076374783553
72 1 -20.62651301136815 25.70119207273374 2.360280021850379
73 1 -17.88967777468761 25.70622768894633 2.360273510994087
74 1 -18.82022606016337 27.95905852747052 3.652482902103715
75 1 -16.08559200106207 27.97119049944257 3.652504220134428
76 1 -24.22933076995274 18.95817813133699 -4.100483856625325
77 1 -21.47871966818461 18.9397737616482 -4.10060013328162
78 1 -22.41509097932923 21.19710227034166 -2.808419510479105
79 1 -19.67179831698095 21.18944643890882 -2.808485130590508
80 1 -20.60693250956336 23.44636377207862 -1.51628769757135
81 1 -17.86869763871122 23.4488441783269 -1.516308816318627
82 1 -18.801654916029 25.70359213959457 -0.2241025816155119
83 1 -16.06646371739818 25.71461475411351 -0.2240907434456706
84 1 -16.99695378676891 27.9662414711421 1.068119784629663
85 1 -14.26324278735638 27.98389483384213 1.06815346998228
86 1 -18.78106721942519 23.44692070914038 -4.100680562381582
87 1 -16.04489451508569 23.45632720768606 -4.100680406899611
88 1 -16.97795999725477 25.70988892379887 -2.808472378503173
89 1 -14.24396535214934 25.72735637433553 -2.808446405051596
90 1 -15.17436737822001 27.97707198463069 -1.516234378460299
91 1 -12.44113977585138 28.00035095061273 -1.516192852283828
92 1 -13.35217984279379 27.99165811842719 -4.100582507899002
93 1 -10.61897631968656 28.02043296379958 -4.100537923370108
94 1 -28.81938518074067 12.29538258435737 2.361080814504208
95 1 -29.73755522353225 14.53530342565763 3.653159449384009
96 1 -26.96806145728334 14.50375595506616 3.653021888332865
97 1 -28.83419485931419 10.06998850751944 -1.515334504186052
98 1 -29.74434037349888 12.30610983449308 -0.2232608055129913
99 1 -26.96851314247442 12.27176295256373 -0.2233787182008674
100 1 -27.89124225803196 14.51470720385548 1.068697173594131
101 1 -25.12212345390466 14.48090381460464 1.068535097089319
102 1 -26.05350923878848 16.73094844683786 2.360646317349105
103 1 -23.29374131307328 16.703032542477 2.360489573158018
104 1 -24.22933076995274 18.95817813133699 3.652641077231674
105 1 -21.47871966818461 18.9397737616482 3.652524800575381
106 1 -29.76063506064541 10.08081800371716 -4.099690261936026
107 1 -26.9792046421536 10.04538333428731 -4.099767132941248
108 1 -27.89408629393875 12.28393389818851 -2.807708330154607
109 1 -25.1169443646009 12.24538616711573 -2.807863262459626
110 1 -26.0449855650421 14.49245425875731 -1.515782310244708
111 1 -23.27753423004979 14.45765776819153 -1.515960824037199
112 1 -24.21317232496121 16.71205759270665 -0.2238338051266119
113 1 -21.45675757220936 16.68679647803244 -0.2239805103247229
114 1 -22.3950097624271 18.9451607661888 1.068184978277892
115 1 -19.64799172108373 18.93212990826931 1.068093814310184
116 1 -20.58571846180689 21.19098276545353 2.360282283767916
117 1 -17.84539386213159 21.19004183865131 2.360243445269778
118 1 -18.78106721942519 23.44692070914038 3.652444371475418
119 1 -16.04489451508569 23.45632720768606 3.652444526957389
120 1 -24.19959638780545 14.46924404310706 -4.100274793930687
121 1 -21.43532845900702 14.43567696433851 -4.100454417685539
122 1 -22.37491279987537 16.69453847843803 -2.808309708791874
123 1 -19.62265856114187 16.67455309717386 -2.808431856478894
124 1 -20.56304505032581 18.93536953960614 -1.516255714859456
125 1 -17.81967524775885 18.92984706537835 -1.516316045193616
126 1 -18.75836760622775 21.18909443982356 -0.224123048753209
127 1 -16.02062631420281 21.19621702078271 -0.2241369210249636
128 1 -16.95665522887678 23.45196106682142 1.068066361799919
129 1 -14.22200936377826 23.46894896996538 1.068082625850037
130 1 -15.15514706808159 25.72043238802828 2.360293051727461
131 1 -12.42182149086193 25.74451541673958 2.360327594788669
132 1 -13.35217984279379 27.99165811842719 3.652542425957997
133 1 -10.61897631968656 28.02043296379958 3.652587010486891
134 1 -18.73354630602495 18.93023329205646 -4.10067623014395
135 1 -15.99342535055968 18.93417198884717 -4.10070664259729
136 1 -16.93283209406785 21.19238895286064 -2.808510947275443
137 1 -14.1970182492849 21.20852473661859 -2.808506345192314
138 1 -15.13336427677395 23.4619824193963 -1.516299802231119
139 1 -12.39959741662186 23.48681310055857 -1.516274548214174
140 1 -13.33287232192655 25.73538804967486 -0.2240597469256765
141 1 -10.59966674783236 25.76594478780846 -0.2240224312219735
142 1 -11.53008428451672 28.00995261876178 1.068197109029312
143 1 -8.796465037713084 28.0438654971186 1.068240446517286
144 1 -13.31077271241029 23.47723073451031 -4.100658701421106
145 1 -10.57721566780496 23.5097332829719 -4.100631765080922
146 1 -11.51076739759856 25.75471344908421 -2.808409782882702
147 1 -8.77716895083878 25.79130269951223 -2.808374605172265
148 1 -9.707780772714743 28.03175296557396 -1.516148407223514
149 1 -6.973357475065258 28.07024441447281 -1.516109610820258
150 1 -7.884999432714423 28.05671619788863 -4.100496520293285
151 1 -5.149455260249302 28.09906504091924 -4.100464335723872
152 1 -28.86215180425457 7.848485242501792 2.361341457013707
153 1 -29.76063506064541 10.08081800371716 3.653434671920975
154 1 -26.9792046421536 10.04538333428731 3.653357800915752
155 1 -28.90605781476565 5.628902042314247 -1.515182949707687
156 1 -29.78916740055212 7.858671774553554 -0.2230328318095337
157 1 -27.00473837311176 7.824688954449743 -0.2230494462003577
158 1 -27.90704329657845 10.05820023857863 1.069015173172288
159 1 -25.12171612289242 10.01646401713992 1.068893324554476
160 1 -26.0427591012449 12.25889398821645 2.360944566924132
161 1 -23.26575438113136 12.21693794402619 2.360755142402593
162 1 -24.19959638780545 14.46924404310706 3.652850139926313
163 1 -21.43532845900702 14.43567696433851 3.652670516171462
164 1 -29.83201760432648 5.637715705774908 -4.099574098328358
165 1 -27.0499069103643 5.607978715895905 -4.099529398487173
166 1 -27.93403123746092 7.837206163092114 -2.807413598681748
167 1 -25.1424664702029 7.795304084935463 -2.807469827618751
168 1 -26.05073200830844 10.03148152441335 -1.515432501044601
169 1 -23.2626612471518 9.983194167059311 -1.515607855159324
170 1 -24.19121746718932 12.2313454343417 -0.2235517841765616
171 1 -21.41642768374167 12.18806994480885 -0.223762255608761
172 1 -22.35606940840416 14.44637548569536 1.068353670401823
173 1 -19.59642935531574 14.41737585888029 1.06819385576726
174 1 -20.53932931293662 16.68004912483762 2.360353425443858
175 1 -17.79156656246068 16.66834751944714 2.360266661709429
176 1 -18.73354630602495 18.93023329205646 3.65244870371305
177 1 -15.99342535055968 18.93417198884717 3.65241829125971
178 1 -24.19229472732359 10.00034247707636 -4.099915094566089
179 1 -21.40383615704698 9.94663817967246 -4.100141555719119
180 1 -22.3407538662628 12.20240393007245 -2.80806573757047
181 1 -19.57060820814876 12.16177507164962 -2.808270390463673
182 1 -20.51542135105371 14.4258887122469 -1.516133307564573
183 1 -17.76130145084453 14.40573467559152 -1.51625362713215
184 1 -18.70674751299654 16.67056881227775 -0.2240858560115341
185 1 -15.96311557740346 16.67006562218492 -0.2241357053144807
186 1 -16.90632525336687 18.93111949561508 1.068049035393753
187 1 -14.16862664541635 18.94593017946298 1.068040266653772
188 1 -15.10871184382607 21.20158456078848 2.360239867368387
189 1 -12.37400328691132 21.22712191030051 2.360253444621944
190 1 -13.31077271241029 23.47723073451031 3.652466232435893
191 1 -10.57721566780496 23.5097332829719 3.652493168776077
192 1 -18.67839289570836 14.41052740324177 -4.100596456990685
193 1 -15.92962947370875 14.40372799398068 -4.100669724607203
194 1 -16.87705344161346 16.66811676130461 -2.808499605991285
195 1 -14.13648125866925 16.68099029994452 -2.808523007147552
196 1 -15.08089051984053 18.9390924063055 -1.51633419884413
197 1 -12.34452490030856 18.96535088718132 -1.516334543222153
198 1 -13.28547267507563 21.21704396836297 -0.2241265611037401
199 1 -10.55102985902898 21.25174787659022 -0.2241136478250777
200 1 -11.4884287028651 23.49766361233243 1.068109572577601
201 1 -8.754480258932489 23.53726301340654 1.068132459341069
202 1 -9.688479371543162 25.77816076883746 2.360364363963182
203 1 -6.954055559227589 25.82008815494619 2.360394146479264
204 1 -7.884999432714423 28.05671619788863 3.652628413563715
205 1 -5.149455260249302 28.09906504091924 3.652660598133128
206 1 -13.25653632064496 18.95469378702224 -4.100709412049117
207 1 -10.5204068786376 18.99203087764952 -4.100714660633893
208 1 -11.46254252084623 21.23871277871668 -2.808492008046612
209 1 -8.727653688682159 21.28178272862789 -2.808486653693916
210 1 -9.665912664323386 23.52295845026441 -1.516249073629687
211 1 -6.931103099069851 23.56875836810532 -1.516233259454217
212 1 -7.865703494761714 25.80530329156663 -0.2239896625777212
213 1 -5.130124909034703 25.85168631107115 -0.2239666657639644
214 1 -6.061516017420916 28.0843841589951 1.068276120642455
215 1 -3.324612791739536 28.12975177023727 1.068300725338222
216 1 -7.842885727423184 23.55256086936335 -4.100612224316178
217 1 -5.10690095954891 23.60345355268664 -4.100603629123146
218 1 -6.042202230691807 25.83557726281475 -2.808348150828753
219 1 -3.305243134931348 25.88541259644507 -2.808331795520682
220 1 -4.237158664337616 28.11421313645388 -1.516081151886466
221 1 -1.498733762116806 28.16168416966555 -1.51606435163853
222 1 -2.411807105993947 28.14560219541755 -4.100443634138238
223 1 0.3282349350450071 28.1942171200802 -4.100434564186228
224 1 -28.96662798255271 3.407599166459196 2.361305984701236
225 1 -29.83201760432648 5.637715705774908 3.653550835528642
226 1 -27.0499069103643 5.607978715895905 3.653595535369828
227 1 -29.04062799311167 1.180005668528697 -1.51544005740637
228 1 -29.88932460943018 3.414714211894848 -0.2230911497003297
229 1 -27.11740627887645 3.390819543741876 -0.2230186926705736
230 1 -27.97874783947378 5.619051861490431 1.069207222039559
231 1 -25.18681959500665 5.581207254486203 1.069236069834419
232 1 -26.07422328476535 7.810775956287818 2.361307399517493
233 1 -23.27541717132855 7.759095255842219 2.361190189150144
234 1 -24.19229472732359 10.00034247707636 3.65320983929091
235 1 -21.40383615704698 9.94663817967246 3.65298337813788
236 1 -29.95796297460706 1.185870296654137 -4.099827354729625
237 1 -27.20423224005252 1.166525074114237 -4.099785078250541
238 1 -28.0427313191926 3.399686566238647 -2.807419845670037
239 1 -25.26126382955271 3.369351796486432 -2.807335448957418
240 1 -26.11933535532426 5.595455585937566 -1.515144208459434
241 1 -23.31511391675187 5.546159735115958 -1.515153834756429
242 1 -24.20949709224366 7.778118202139632 -0.2231332619832574
243 1 -21.40487743491958 7.715471732816532 -0.2233323851022636
244 1 -22.33307028936354 9.965191688072709 1.068690972611182
245 1 -19.54789557858154 9.909955478266973 1.068438580428059
246 1 -20.49298461602675 12.17435624533076 2.360543477292201
247 1 -17.729501597843 12.14240908019423 2.360378567223398
248 1 -18.67839289570836 14.41052740324177 3.652528476866315
249 1 -15.92962947370875 14.40372799398068 3.652455209249796
250 1 -24.25214391163848 5.56490390412062 -4.099515978824016
251 1 -21.4336050122573 5.499625921397621 -4.099604791542796
252 1 -22.34043117325033 7.738184718257411 -2.807625969504003
253 1 -19.53420890636739 7.666227169430201 -2.807907072462536
254 1 -20.47531932440027 9.928003886567076 -1.515852248309561
255 1 -17.69758224349982 9.879274954327977 -1.51607862700137
256 1 -18.64942990040647 12.15091518654554 -0.2239510930375551
257 1 -15.89308835171137 12.13488951255621 -0.2240546732674148
258 1 -16.84508790073446 14.403364230141 1.068097291378266
259 1 -14.10026849353414 14.41346867896615 1.068058529091715
260 1 -15.04963583710165 16.67433151596657 2.360232042794065
261 1 -12.31060161843428 16.70145709259271 2.360215948939685
262 1 -13.25653632064496 18.95469378702224 3.652415521807884
263 1 -10.5204068786376 18.99203087764952 3.652410273223107
264 1 -18.62190476246236 9.893364164485426 -4.100388568831097
265 1 -15.85394668301422 9.863086523563286 -4.100536664334683
266 1 -16.81077403594652 12.13688231154548 -2.808405576415151
267 1 -14.0597438724724 12.14297873665923 -2.808460221840787
268 1 -15.01475648701402 14.40705488145185 -1.51630679257561
269 1 -12.27162179094744 14.43546940929671 -1.516339839803298
270 1 -13.2235137869453 16.69005116631493 -0.2241528188296525
271 1 -10.48450748539335 16.73078508479076 -0.2241808864060236
272 1 -11.43250614652054 18.97783107068543 1.068038933502081
273 1 -8.695757047382365 19.02505117249196 1.068020232937748
274 1 -9.639413913894019 21.26613904893285 2.360263182633805
275 1 -6.903589961182478 21.31636176947033 2.360258527289766
276 1 -7.842885727423184 23.55256086936335 3.652512709540821
277 1 -5.10690095954891 23.60345355268664 3.652521304733854
278 1 -13.18595565789367 14.42297639233845 -4.100701558593181
279 1 -10.44229258596991 14.46849114476779 -4.100757973478164
280 1 -11.39762962135931 16.71509077001376 -2.808543048569168
281 1 -8.657602119561119 16.76752024806969 -2.808593852378663
282 1 -9.608170194904547 19.0078204657685 -1.5163458854593
283 1 -6.870332596246874 19.0631926891618 -1.516379266732222
284 1 -7.815718977916593 21.29856420549082 -0.2241132887775587
285 1 -5.078714618228463 21.3545050180285 -0.2241259813226505
286 1 -6.019112798006743 23.58575662410891 1.068144522382567
287 1 -3.281780167806841 23.6405286866812 1.068147908851169
288 1 -4.217808937539286 25.86832791373644 2.360413733173536
289 1 -1.479331649763199 25.92054730135442 2.360424433937893
290 1 -2.411807105993947 28.14560219541755 3.652681299718762
291 1 0.3282349350450071 28.1942171200802 3.652690369670772
292 1 -7.783146175658716 19.04356319342685 -4.100741014661075
293 1 -5.044142277737779 19.10516323038242 -4.10078361009953
294 1 -5.991256115451714 21.33505043339177 -2.808495806067922
295 1 -3.253024283085142 21.39522335256941 -2.808511583627958
296 1 -4.194458517718517 23.62174553868592 -1.516227609320811
297 1 -1.455707039549827 23.67915600449928 -1.516226498978836
298 1 -2.392419286614242 25.90284957185926 -0.2239532823068039
299 1 0.3476480941775561 25.9563571805678 -0.2239471929325642
300 1 -0.5853874143381461 28.17791643521687 1.068313648841966
301 1 2.156308376158081 28.22669524207422 1.068314989281375
302 1 -2.368863306074743 23.65969964167308 -4.100601752192734
303 1 0.3713235616358618 23.71852023806373 -4.100600358876173
304 1 -0.565976520923001 25.93841386547379 -2.80832350644109
305 1 2.175706260197917 25.99210552751912 -2.80832156096838
306 1 1.242134028304688 28.21050408457699 -1.516059132123462
307 1 3.985465369431493 28.25846404632172 -1.516065773385642
308 1 3.070754210242646 28.24270888494071 -4.100437166984198
309 1 5.815646018032175 28.28888139749466 -4.100452225994455
310 1 -29.1203299837025 -1.057352162903015 2.360889086022602
311 1 -29.95796297460706 1.185870296654137 3.653297579127376
312 1 -27.20423224005252 1.166525074114237 3.653339855606459
313 1 -29.19574825391201 -3.304748873807587 -1.515864197128375
314 1 -30.03133451639656 -1.051584916214678 -0.2234799605691945
315 1 -27.29962281658288 -1.070568557376629 -0.223500889655955
316 1 -28.12275763771214 1.17358827787398 1.068948898965859
317 1 -25.36453439752778 1.149956430053487 1.069004719093053
318 1 -26.1903688369499 3.380796032196594 2.361384489282659
319 1 -23.39495696587658 3.340675407190159 2.361477026725964
320 1 -24.25214391163848 5.56490390412062 3.653608955032984
321 1 -21.4336050122573 5.499625921397621 3.653520142314204
322 1 -30.10115433824962 -3.297866933751972 -4.100221960292226
323 1 -27.3885590327499 -3.320927379674257 -4.100278838475734
324 1 -28.20972902344352 -1.063651142519029 -2.807867772002308
325 1 -25.48141692484906 -1.086724024268535 -2.807896903913235
326 1 -26.28489462167826 1.15869838202888 -1.515391683449283
327 1 -23.51947926760168 1.128853666968156 -1.515315128163884
328 1 -24.3296458149682 3.356135933082824 -0.2229292155679831
329 1 -21.51345816872336 3.300194191659564 -0.222847000564616
330 1 -22.37559918581521 5.524544746848434 1.069193251073669
331 1 -19.54357773204571 5.43883890950972 1.068969552217976
332 1 -20.4692522429689 7.691267884758076 2.360947436232863
333 1 -17.66887399639185 7.618641778797482 2.360640107367742
334 1 -18.62190476246236 9.893364164485426 3.652736365025903
335 1 -15.85394668301422 9.863086523563286 3.652588269522317
336 1 -24.4428638017303 1.140098857777502 -4.099720053206487
337 1 -21.66495014600175 1.10049499426535 -4.099610003564187
338 1 -22.45650575580461 3.322324297945815 -2.807244048520626
339 1 -19.60985415267744 3.239350427674579 -2.807234983712079
340 1 -20.48938282603613 5.471067601458613 -1.515303285332126
341 1 -17.65251676318164 5.36718273463114 -1.515676068095861
342 1 -18.60050543024305 7.641466806291223 -0.2236381321817119
343 1 -15.81332531742449 7.587550045667444 -0.2238621480004056
344 1 -16.77498645838448 9.868821808539614 1.068246924462178
345 1 -14.01474686294558 9.868793579757394 1.068174594393594
346 1 -14.97618677683521 12.1368473476407 2.360303499375584
347 1 -12.22688026561537 12.16753553796038 2.360252744778186
348 1 -13.18595565789367 14.42297639233845 3.652423375263819
349 1 -10.44229258596991 14.46849114476779 3.652366960378836
350 1 -18.59737396965969 5.403585828875102 -4.099908897886412
351 1 -15.77411999522382 5.30740222220179 -4.100273472536346
352 1 -16.73980865864632 7.599888433107292 -2.80818648948582
353 1 -13.96515049798862 7.589428014569057 -2.808284567228852
354 1 -14.93405894139486 9.862922993631591 -1.51618337796487
355 1 -12.17540288569624 9.898060489592639 -1.516253524267283
356 1 -13.14341338348626 12.15328232402068 -0.2241007336779944
357 1 -10.3923539452217 12.20613266228615 -0.2241932643731649
358 1 -11.35710500360272 14.45073724713227 1.068016716827876
359 1 -8.61161141103706 14.5100855694384 1.067923747615856
360 1 -9.57117470920655 16.74833660454991 2.360177106120979
361 1 -6.829764739753411 16.80985814568682 2.36010495442382
362 1 -7.783146175658716 19.04356319342685 3.652383919195925
363 1 -5.044142277737779 19.10516323038242 3.65234132375747
364 1 -13.09537851496851 9.880673539108306 -4.100596296259145
365 1 -10.33242710454064 9.945681725415156 -4.100738940384104
366 1 -11.30990549495722 12.18533042786018 -2.808527669080211
367 1 -8.555523665764337 12.25439124464848 -2.808675870259909
368 1 -9.527128218238778 14.48839310194013 -1.516414222345154
369 1 -6.779751907616332 14.55746596513932 -1.516536548604859
370 1 -7.743790177312396 16.78810340563472 -0.2242432599498986
371 1 -5.001267594799322 16.85604756272875 -0.2243256006467002
372 1 -5.957324975804815 19.08377779801815 1.067981238772288
373 1 -3.2173568408261 19.14976351051224 1.067938765700086
374 1 -4.165968435017587 21.37460246836277 2.360243566885657
375 1 -1.426575980889395 21.43757931950178 2.360230542955946
376 1 -2.368863306074743 23.65969964167308 3.652523181664266
377 1 0.3713235616358618 23.71852023806373 3.652524574980826
378 1 -7.695790568829102 14.53321775500801 -4.100867595992495
379 1 -4.947478009619009 14.60822484492251 -4.100998952976413
380 1 -5.915571157390778 16.83257065355776 -2.808672899186801
381 1 -3.172587613087102 16.90464052240778 -2.808749994046359
382 1 -4.130810070669255 19.12720331283469 -1.516423073855149
383 1 -1.390195842093367 19.19596150517991 -1.516455612432789
384 1 -2.339890645434973 21.41625256622872 -0.2241410844211679
385 1 0.4005711993772662 21.48069972182956 -0.2241466169860346
386 1 -0.5423113449001378 23.69879639500952 1.068148908293943
387 1 2.199310919369551 23.75781751550897 1.068151778787999
388 1 1.261542679618735 25.9742851102406 2.360428445355771
389 1 4.004828456850046 26.02705586537251 2.360425836513493
390 1 3.070754210242646 28.24270888494071 3.652687766872802
391 1 5.815646018032175 28.28888139749466 3.652672707862545
392 1 -2.303810579713783 19.17272057131105 -4.100822252120064
393 1 0.4371714267004931 19.24288203187856 -4.100837337545697
394 1 -0.5130872444278574 21.45909652408422 -2.808521321566974
395 1 2.228396058863114 21.52375103623585 -2.808517137704797
396 1 1.285197599512679 23.73822736284916 -1.516224405790246
397 1 4.028255746680593 23.79624277519826 -1.516220694648571
398 1 3.09013629995031 26.00972638697577 -0.2239474177091526
399 1 5.834970424926289 26.0604762432447 -0.2239557630567109
400 1 4.900433132691074 28.27388092529805 1.068304195671189
401 1 7.646746183189194 28.31733277351356 1.068280399412484
402 1 3.11366371247852 23.77718988924082 -4.100596872593809
403 1 5.858150062162566 23.83297825732752 -4.100594637622884
404 1 4.919776214694986 26.04400262474613 -2.808326857360184
405 1 7.66604541852765 26.09165095660443 -2.808342400909072
406 1 6.731089572630069 28.30338962545814 -1.516085184881042
407 1 9.478611566964673 28.34325245528873 -1.516117478624166
408 1 8.562594937418043 28.33064182087884 -4.100480354300087
409 1 11.31103503681021 28.36615046229924 -4.100519905800835
410 1 -29.25861273514369 -5.559076523614498 2.360614156747552
411 1 -30.10115433824962 -3.297866933751972 3.652902973564774
412 1 -27.3885590327499 -3.320927379674257 3.652846095381266
413 1 -29.30500393835816 -7.815774600171352 -1.515920610401503
414 1 -30.1604162229493 -5.55050812249454 -0.223747803761951
415 1 -27.45927615109015 -5.579431561823781 -0.2237834523436298
416 1 -28.29147545714062 -3.312386518572365 1.068491859142437
417 1 -25.58799322859362 -3.341540595615099 1.068424122190591
418 1 -26.39013156953011 -1.07821318367525 2.360864507306625
419 1 -23.66729889594287 -1.107132408932592 2.360822203596608
420 1 -24.4428638017303 1.140098857777502 3.653404880650513
421 1 -21.66495014600175 1.10049499426535 3.653514930292812
422 1 -30.20545278765319 -7.805749100834619 -4.100298099956356
423 1 -27.50765848019775 -7.839273580059566 -4.100276739712444
424 1 -28.35816781137223 -5.568655426756552 -2.808147944501341
425 1 -25.66705670759941 -5.605549096184425 -2.808169355365338
426 1 -26.48727963142607 -3.330561979252626 -1.515926469670405
427 1 -23.79734679799805 -3.36899052643868 -1.516003000889482
428 1 -24.57370127779884 -1.096282625621142 -0.2235357834840644
429 1 -21.86050302410968 -1.134202505469967 -0.2236007600046531
430 1 -22.59379814461768 1.115838854753061 1.069095918478533
431 1 -19.79149237082764 1.058807195895808 1.069262336525999
432 1 -20.56487264820608 3.273070192103507 2.361535382475592
433 1 -17.68030968352071 3.145091556907889 2.36131061564711
434 1 -18.59737396965969 5.403585828875102 3.653216035970587
435 1 -15.77411999522382 5.30740222220179 3.652851461320655
436 1 -24.6911545145163 -3.354198009708058 -4.100351635745927
437 1 -22.02201250924123 -3.407774530102313 -4.100423186654666
438 1 -22.76266810535197 -1.119610426753749 -2.807948911605338
439 1 -20.06871659258014 -1.173136351155008 -2.808056318113629
440 1 -20.73158247224004 1.081958833889952 -1.515180564571272
441 1 -17.87300230028284 0.9859254279195988 -1.514932589170192
442 1 -18.6479880208493 3.197158560839869 -0.2229278195399734
443 1 -15.74711161806845 3.02559758589947 -0.2234796428259466
444 1 -16.71098446343655 5.333293654063211 1.068568021929167
445 1 -13.9105515732165 5.301636633872749 1.068411934824992
446 1 -14.88881842118761 7.583673897361471 2.360484621975822
447 1 -12.11530009991186 7.628220823532217 2.360387332313958
448 1 -13.09537851496851 9.880673539108306 3.652528637597855
449 1 -10.33242710454064 9.945681725415156 3.652385993472897
450 1 -18.84090173277357 1.028488312669777 -4.099403685780857
451 1 -15.83183638239844 0.8051932744597714 -4.099374453493056
452 1 -16.7108447260069 3.084679126292962 -2.807644769333877
453 1 -13.84850518952383 2.997746314596251 -2.807990564573458
454 1 -14.84149692899166 5.295534082052127 -1.515941721187151
455 1 -12.0411444521414 5.362140907929647 -1.516098947745905
456 1 -13.0409984971902 7.604717025984131 -0.2239375361779586
457 1 -10.25791193277226 7.691246180077435 -0.2241603490680953
458 1 -11.25445927425984 9.920085217872348 1.068073937901305
459 1 -8.48568863921928 10.00334045536456 1.067853227631855
460 1 -9.474201489168211 12.22934927103955 2.36013164373981
461 1 -6.717247273951843 12.30788536209148 2.359948117395892
462 1 -7.695790568829102 14.53321775500801 3.652257337864505
463 1 -4.947478009619009 14.60822484492251 3.652125980880587
464 1 -12.97784910520952 5.325328277895211 -4.100382066133056
465 1 -10.15709293145962 5.451730055540478 -4.100747466595136
466 1 -11.18756351077393 7.657832506344517 -2.808438682526361
467 1 -8.395340340488461 7.76184913316597 -2.808749957090537
468 1 -9.409412097349167 9.973760298034637 -1.516439167213903
469 1 -6.637624405950108 10.06403148165783 -1.516688730391953
470 1 -7.636472276957274 12.28072160660948 -0.2243631035943764
471 1 -4.879160896338528 12.36336786732472 -0.2245476111098698
472 1 -5.863606585960044 14.58254699160467 1.06779397742313
473 1 -3.115760807953924 14.66066613869183 1.067676547636197
474 1 -4.086918333833977 16.88011925956049 2.360023262546743
475 1 -1.344207854799401 16.95456201951659 2.359965942763774
476 1 -2.303810579713783 19.17272057131105 3.652302681736936
477 1 0.4371714267004931 19.24288203187856 3.652287596311302
478 1 -7.561626490955751 10.03362658938523 -4.100981444652177
479 1 -4.791272189771138 10.12379820602285 -4.101208219026383
480 1 -5.798069930292963 12.33552249323758 -2.808864187946241
481 1 -3.042938387703666 12.41904131257764 -2.809019964042174
482 1 -4.031490619254179 14.6343119379215 -1.516663642723781
483 1 -1.28546029300766 14.71379876466974 -1.516748547077669
484 1 -2.258334343071891 16.92948899490866 -0.2243944160755972
485 1 0.483533458475245 17.00504287061798 -0.2244215907687285
486 1 -0.4765314009883455 19.21938164376352 1.067914236874213
487 1 2.264689328386011 19.28973791731355 1.067920108271602
488 1 1.314398215255755 21.50228571136183 2.360229782125608
489 1 4.056927799189978 21.56589588025283 2.360242753719506
490 1 3.11366371247852 23.77718988924082 3.652528061263191
491 1 5.858150062162566 23.83297825732752 3.652530296234116
492 1 -2.200390088531503 14.68718506778918 -4.101102036456041
493 1 0.5428652114581693 14.76714339853936 -4.101142580282352
494 1 -0.4302447114167169 16.9797723110983 -2.808793204328991
495 1 2.310529374066669 17.05547487046316 -2.80878550740711
496 1 1.35090974644164 19.26636639508091 -1.516460367437155
497 1 4.092435052861656 19.33573362703105 -1.516434778318834
498 1 3.14257005388658 21.54499050090574 -0.2241377234800043
499 1 5.886228591763616 21.6062512314649 -0.2241198610936136
500 1 4.943085660040705 23.81487343163479 1.068155123648213
501 1 7.688952449345011 23.86719540813708 1.068152632083751
502 1 6.750398801312372 26.07638784654369 2.36041406456973
503 1 9.497908945826131 26.1199043407772 2.360390335457744
504 1 8.562594937418043 28.33064182087884 3.652644579556912
505 1 11.31103503681021 28.36615046229924 3.652605028056164
506 1 3.178524122421436 19.31289605647151 -4.100821151933554
507 1 5.920591817677095 19.37997137655609 -4.100781660695919
508 1 4.971477943569637 21.58635498442661 -2.808501078268296
509 1 7.716349729162213 21.64386890553672 -2.808484173474723
510 1 6.773442511013528 23.85045333774539 -1.516220401475699
511 1 9.520556105292385 23.89807947350495 -1.516230604435614
512 1 8.581890270547364 26.10618255547442 -0.2239753380629933
513 1 11.33034737736425 26.14463733429994 -0.2240069688405834
514 1 10.39476849887371 28.3551060181473 1.068244245606747
515 1 13.14376061736905 28.38564232169809 1.06819994984287
516 1 8.604664197365233 23.88310324664013 -4.100600682177134
517 1 11.35276079455163 23.92487986264731 -4.100619962405471
518 1 10.41407247241862 26.13274412797321 -2.808370222523345
519 1 13.16307700571975 26.16537249328344 -2.808407632980591
520 1 12.22737768495117 28.37634127591782 -1.516159799136525
521 1 14.97649613700466 28.4014764704369 -1.516205078362889
522 1 14.06014628448225 28.39402654022735 -4.10056523062828
523 1 16.80893412301515 28.4135531569626 -4.100606859586559
524 1 -29.33516277407529 -10.07098680123747 2.360746160044905
525 1 -30.20545278765319 -7.805749100834619 3.652826833900644
526 1 -27.50765848019775 -7.839273580059566 3.652848194144555
527 1 -29.35170106486487 -12.32249778016489 -1.515677791652114
528 1 -30.23599346324342 -10.06020233835015 -0.2236489843564639
529 1 -27.5357994089113 -10.09559911974714 -0.2235699926712548
530 1 -28.40571115262416 -7.82689775992452 1.068461069072044
531 1 -25.71552898488689 -7.868481469362111 1.068520200225771
532 1 -26.56215797939331 -5.591635017987747 2.360583842498181
533 1 -23.88393311171285 -5.639966054351746 2.360597553747297
534 1 -24.6911545145163 -3.354198009708058 3.652773298111073
535 1 -22.02201250924123 -3.407774530102313 3.652701747202333
536 1 -30.25392342218236 -12.31171488009836 -4.100086377230889
537 1 -27.54836886821262 -12.34635097105441 -4.099968479686555
538 1 -28.43510265657405 -10.08275861454058 -2.80797777767131
539 1 -25.739256361742 -10.12474656499094 -2.807855450075809
540 1 -26.61091641119707 -7.853073713807904 -1.515882646058629
541 1 -23.92874194388105 -7.904831701294713 -1.515764870722985
542 1 -24.77423057414482 -5.621520389128862 -0.223790867454667
543 1 -22.11164755279704 -5.686259111631603 -0.2237029234029296
544 1 -22.90731752010267 -3.386551620887442 1.068346927021575
545 1 -20.27030834187988 -3.466791925665531 1.068333583131741
546 1 -20.96190406321282 -1.151645771820879 2.36073951175791
547 1 -18.31502627031465 -1.238905718823021 2.360549561248522
548 1 -18.84090173277357 1.028488312669777 3.653721248076144
549 1 -15.83183638239844 0.8051932744597714 3.653750480363945
550 1 -24.82149499470335 -7.885680348581632 -4.100191158538185
551 1 -22.14622564658141 -7.949263048816824 -4.099993631198789
552 1 -22.99637398521798 -5.661371002925139 -2.808124816285705
553 1 -20.34972171814145 -5.748139760066071 -2.807905468211251
554 1 -21.14258485334193 -3.433928213082187 -1.516056704384007
555 1 -18.55008005560792 -3.562031029982333 -1.515854004042554
556 1 -19.18425853763528 -1.200798700710439 -0.223743051055748
557 1 -16.69414621071692 -1.406388508009587 -0.2239035103779109
558 1 -16.87546051213149 0.919833489737919 1.069512279398703
559 1 -13.74924580120649 0.6691077578010739 1.068671091419666
560 1 -14.7949192879914 2.989445036956622 2.360789229262056
561 1 -11.93010276104609 3.117115948408272 2.360437102926778
562 1 -12.97784910520952 5.325328277895211 3.652742867723943
563 1 -10.15709293145962 5.451730055540478 3.652377467261864
564 1 -19.40621560300218 -3.508697883922813 -4.100357366256624
565 1 -16.84210658597694 -3.69399898365651 -4.099796481299048
566 1 -17.47496829041226 -1.29764773183623 -2.808294896946275
567 1 -15.22156760569805 -1.57377054819311 -2.807340893166548
568 1 -14.76951563835784 0.6399060804711203 -1.515513905810505
569 1 -11.64793936193752 0.9545084701878684 -1.516321169246702
570 1 -12.89472462803133 3.048061993750038 -0.2237288932939047
571 1 -9.995856447533926 3.244172555057634 -0.224279096805741
572 1 -11.10037802383216 5.406007676866931 1.068145422163441
573 1 -8.27065941046455 5.537212818127274 1.067760710611253
574 1 -9.326913750784563 7.726427684349844 2.360107479994612
575 1 -6.533451347797694 7.829887132982762 2.359811174080472
576 1 -7.561626490955751 10.03362658938523 3.652143489204822
577 1 -4.791272189771138 10.12379820602285 3.651916714830618
578 1 -12.68299256950589 0.8421536940106956 -4.1005752936912
579 1 -9.693032935650294 1.071940237593184 -4.100585418788982
580 1 -10.96145164553925 3.185106290906318 -2.808514714852868
581 1 -8.084851303899493 3.334954764764817 -2.808768104697263
582 1 -9.213291840718359 5.495997116214484 -1.51650466965723
583 1 -6.392850649256697 5.609230164794573 -1.516761231530475
584 1 -7.463965860536057 7.796517339977487 -0.2244752026559701
585 1 -4.676878929159751 7.892070253328184 -0.2247012360689994
586 1 -5.714062082221297 10.0941639892402 1.067609895946491
587 1 -2.949046357045539 10.18127878339383 1.067434424659521
588 1 -3.960724419982099 12.39124265602794 2.359774937553503
589 1 -1.209868522329498 12.47426757073881 2.359666478242954
590 1 -2.200390088531503 14.68718506778918 3.652022897400959
591 1 0.5428652114581693 14.76714339853936 3.651982353574647
592 1 -7.330311330183772 5.574910997177627 -4.101073860251142
593 1 -4.52734469504663 5.669422352976852 -4.101212251343934
594 1 -5.604303315446211 7.861739557890908 -2.809014087605713
595 1 -2.828047451970519 7.94873926713142 -2.809165622777187
596 1 -3.869528741353144 10.15283716191765 -1.516891920787943
597 1 -1.112459607749794 10.23667246077225 -1.517007412986968
598 1 -2.125948984729087 12.44671704538178 -0.2246813791513879
599 1 0.6192869796038212 12.52912886138733 -0.224733261959929
600 1 -0.371030427976174 14.74046152463636 1.067612775243022
601 1 2.369045183732605 14.82047191159977 1.067621746268401
602 1 1.397121168810168 17.03030145676746 2.359955992132563
603 1 4.136928776541325 17.1052347900838 2.359997139813593
604 1 3.178524122421436 19.31289605647151 3.652303781923446
605 1 5.920591817677095 19.37997137655609 3.652343273161081
606 1 -2.029985444948503 10.20918753953822 -4.101353995479485
607 1 0.7177245143169133 10.2909358405701 -4.101409525770956
608 1 -0.2947750957330115 12.50172197741966 -2.809100863890046
609 1 2.444306096677001 12.58402729958659 -2.809092555113287
610 1 1.45621799554817 14.79382160122885 -1.516764581289618
611 1 4.193317749607278 14.873533214934 -1.516707269499363
612 1 3.223784870868144 17.0804832761376 -0.2243966010888628
613 1 5.963101840840197 17.15351102071605 -0.2243295660921071
614 1 5.006448114480344 19.35813438698485 1.067953629625576
615 1 7.749378657351622 19.42138990985154 1.067997771334767
616 1 6.801185434741209 21.62546386257394 2.360260928884632
617 1 9.547271621263777 21.6777557167309 2.360270835220203
618 1 8.604664197365233 23.88310324664013 3.652524251679865
619 1 11.35276079455163 23.92487986264731 3.652504971451529
620 1 3.281389470503168 14.84706007265599 -4.101108890449552
621 1 6.016299878188025 14.92577981954052 -4.101011143184362
622 1 5.05001402805229 17.12962060870611 -2.80873010248596
623 1 7.789542776666659 17.19916800091581 -2.808650138548214
624 1 6.834894072176382 19.40110626018421 -1.516391665823587
625 1 9.578947051313653 19.4587666955643 -1.516353281749341
626 1 8.631716281933116 21.66134094737886 -0.2241057722238021
627 1 11.37884526249701 21.70694253680162 -0.2241069204060108
628 1 10.43659996820782 23.91203269166626 1.068137911547772
629 1 13.18526104541601 23.94698043358278 1.068110878751972
630 1 12.24669599063218 26.15552846270615 2.36035542433713
631 1 14.99575789868357 26.18179850842032 2.360316286153222
632 1 14.06014628448225 28.39402654022735 3.652559703228719
633 1 16.80893412301515 28.4135531569626 3.65251807427044
634 1 8.664061499326186 19.44066442444685 -4.100739144815457
635 1 11.40926866221585 19.49080792070305 -4.100714795427247
636 1 10.46299254886759 21.69299340078475 -2.80847949581096
637 1 13.21075776674611 21.73059640594231 -2.808491829476022
638 1 12.26899699742668 23.93654877480915 -1.516254119000773
639 1 15.01765987485357 23.96397443456182 -1.516284552900815
640 1 14.07944628782315 26.17413608653081 -0.2240458577481291
641 1 16.82802257679995 26.19380295109358 -0.2240812344492263
642 1 15.89277143765516 28.40798454831204 1.068155885218372
643 1 18.64077794385028 28.42192971144051 1.068122759175842
644 1 14.10150056904467 23.95613119062346 -4.100649415086177
645 1 16.84950961903228 23.97572302779704 -4.10067652640606
646 1 15.91196528694012 26.18835220179646 -2.808445632255366
647 1 18.65951453649036 26.20148343664766 -2.808471298500701
648 1 17.72494767296219 28.41819441568793 -1.516243046104196
649 1 20.47176837514632 28.42680985051452 -1.516263362969289
650 1 19.55639392391054 28.42478899157685 -4.100634056559228
651 1 22.30170545590057 28.4285183490248 -4.10063847379311
652 1 -29.35790687723914 -14.56956571273942 2.361026163674686
653 1 -30.25392342218236 -12.31171488009836 3.653038556626111
654 1 -27.54836886821262 -12.34635097105441 3.653156454170445
655 1 -29.35679541211181 -16.81236493624231 -1.515409190900409
656 1 -30.26193769522949 -14.55937647404672 -0.2233897934722736
657 1 -27.55007568508562 -14.59141005874368 -0.2232543334329514
658 1 -28.44987134875399 -12.33403992876854 1.06873638030882
659 1 -25.74595460213859 -12.37318686617409 1.068889539382676
660 1 -26.63721079845966 -10.10957900001758 2.360845498898532
661 1 -23.94467188961202 -10.1586155480553 2.361019396582946
662 1 -24.82149499470335 -7.885680348581632 3.652933775318815
663 1 -22.14622564658141 -7.949263048816824 3.653131302658211
664 1 -30.2626799438165 -16.80313723188384 -4.099827258476968
665 1 -27.54468876454614 -16.83156242329553 -4.099690581091657
666 1 -28.45397943335698 -14.58025671480552 -2.807678576130494
667 1 -25.74193996735097 -14.61480981940635 -2.807520572317465
668 1 -26.64710306209098 -12.35941633731942 -1.515542387576572
669 1 -23.94337663198302 -12.40239506816068 -1.515356958620457
670 1 -24.84180653770288 -10.14111048920456 -0.2234224872214833
671 1 -22.15024850755819 -10.19630796708662 -0.223199758765778
672 1 -23.03709244331544 -7.926035075337633 1.068675747422956
673 1 -20.36465348072376 -8.000421432251235 1.068953822238463
674 1 -21.2296136650161 -5.715106526998762 2.360743833190142
675 1 -18.59096990011633 -5.823761754633984 2.361115747218308
676 1 -19.40621560300218 -3.508697883922813 3.652767567600376
677 1 -16.84210658597694 -3.69399898365651 3.653328452557951
678 1 -24.84477300483497 -12.38756602691975 -4.09979823092065
679 1 -22.13908620872383 -12.43236256834233 -4.099594627094825
680 1 -23.04759490265805 -10.17711039742401 -2.807655631144311
681 1 -20.35317769415163 -10.23473020281643 -2.807410160987882
682 1 -21.2556424442044 -7.97426259414808 -1.515524490181797
683 1 -18.57809736598987 -8.051103321715823 -1.515222999463318
684 1 -19.47080490961685 -5.784935612937558 -0.2234023647869189
685 1 -16.81969213540592 -5.889828635132018 -0.2230389832269745
686 1 -17.69832111656441 -3.626812295363345 1.068728716611816
687 1 -15.09556038168295 -3.728582965667916 1.069096234161465
688 1 -15.98151585227798 -1.616629673327574 2.361048085283461
689 1 -13.71136382220388 -1.264472190813395 2.361789777387375
690 1 -12.68299256950589 0.8421536940106956 3.652549640165799
691 1 -9.693032935650294 1.071940237593184 3.652539515068018
692 1 -19.47242177067002 -8.026617015546242 -4.099691845607351
693 1 -16.7812146370369 -8.085274693539844 -4.099481195319916
694 1 -17.70786955641427 -5.860791467526576 -2.80750268030028
695 1 -15.031699171047 -5.897427652421877 -2.807357175247241
696 1 -15.97253004509268 -3.737694067488517 -1.515311459437624
697 1 -13.37277904189054 -3.593541798232721 -1.514885904880261
698 1 -14.50515511041347 -1.36930549238062 -0.2225090123199257
699 1 -11.99180260624551 -1.157999339204385 -0.2228187073057418
700 1 -10.65687673702301 1.023657358478205 1.068097853805362
701 1 -7.8071884815141 1.139908597376328 1.068268696487222
702 1 -9.036751539375061 3.293584874356158 2.360017728086582
703 1 -6.200204273247287 3.4007740364063 2.359973243046247
704 1 -7.330311330183772 5.574910997177627 3.652051073605858
705 1 -4.52734469504663 5.669422352976852 3.651912682513066
706 1 -14.22806038705012 -3.670121666367114 -4.099501009658693
707 1 -11.66135815370474 -3.461975984325066 -4.098966685753696
708 1 -12.86462975534223 -1.202178346467468 -2.807090147776298
709 1 -10.21025119721882 -1.094077555250684 -2.807329796920951
710 1 -8.745185892165541 1.109187918203976 -1.516152208265538
711 1 -5.94843926824641 1.190048162111851 -1.516044469386814
712 1 -7.139633847307966 3.370163044162967 -0.2244040302596576
713 1 -4.335250822864741 3.452634626467271 -0.2243833418553375
714 1 -5.458519928162501 5.640573105509829 1.06756913620713
715 1 -2.674068086502426 5.721503090974219 1.067499729588723
716 1 -3.751412543869965 7.921004459330533 2.35962371344315
717 1 -0.9879061912363578 8.001557968621148 2.35953196608995
718 1 -2.029985444948503 10.20918753953822 3.651770938377514
719 1 0.7177245143169133 10.2909358405701 3.651715408086044
720 1 -6.875610227262156 1.166420945748998 -4.10044607184127
721 1 -4.102808592551908 1.231662699496537 -4.100385050740905
722 1 -5.265666631901356 3.427972516402951 -2.808768416959509
723 1 -2.484449574951781 3.496797113647278 -2.808741247891155
724 1 -3.59923805493067 5.696253713121676 -1.516859401855869
725 1 -0.8320093572747733 5.768770373638232 -1.516896339284366
726 1 -1.906864732755295 7.975507659945138 -0.2248208196124851
727 1 0.8432735943801453 8.052517735347635 -0.2248666462824852
728 1 -0.1965428899478969 10.26387077962213 1.067349085981449
729 1 2.541301713161686 10.34530532575998 1.067352841833849
730 1 1.532306674714023 12.55654546255838 2.359644484225385
731 1 4.265500216013233 12.6393366638236 2.35971288099829
732 1 3.281389470503168 14.84706007265599 3.652016043407447
733 1 6.016299878188025 14.92577981954052 3.652113790672638
734 1 -1.751698097227287 5.745559581248449 -4.101262018418986
735 1 0.9996423312305807 5.813893442329117 -4.101286051768406
736 1 -0.07119096724126206 8.027143403329102 -2.809233093890939
737 1 2.665449456221551 8.103646822344414 -2.809238997302756
738 1 1.630332808689832 10.31802776039394 -1.517033352213243
739 1 4.358560860756308 10.40099405315688 -1.516968449234779
740 1 3.355340779047359 12.61161770277125 -0.2246946600637186
741 1 6.083721678197025 12.69504859990632 -0.2245710058877405
742 1 5.104918848901013 14.89981143084829 1.06770071897585
743 1 7.838886793634027 14.97611315031099 1.067823526251955
744 1 6.876257103841615 17.17675273156252 2.360072531154458
745 1 9.61670884191232 17.2406977009422 2.360149363338692
746 1 8.664061499326186 19.44066442444685 3.652385789041543
747 1 11.40926866221585 19.49080792070305 3.652410138429754
748 1 3.450682222123318 10.37291764364787 -4.101375591105036
749 1 6.17037541764345 10.45887281183847 -4.101246408042867
750 1 5.174908135412432 12.66716855959398 -2.808995510723514
751 1 7.900339184856373 12.75036146821919 -2.808829756662703
752 1 6.927580787320222 14.95128159237617 -1.516594597822139
753 1 9.662040346821756 15.0227114171343 -1.516468802753261
754 1 8.703013501937679 17.22055612063138 -0.2242491158819472
755 1 11.44481819887643 17.27631759285629 -0.2241900926867603
756 1 10.49402513847839 19.47553349932841 1.068029897287049
757 1 13.24005417613865 19.51632804870003 1.068037501107464
758 1 12.29478520829452 21.71950423345421 2.360263813743591
759 1 15.04254197181692 21.74815049704667 2.360244942232228
760 1 14.10150056904467 23.95613119062346 3.652475518770823
761 1 16.84950961903228 23.97572302779704 3.65244840745094
762 1 8.7503385525024 15.00002235547887 -4.100883791483882
763 1 11.48645212581408 15.0630697214391 -4.100778900779219
764 1 10.53064676541596 17.25936204873981 -2.808580692729195
765 1 13.27367201105178 17.30425091063872 -2.808546815591698
766 1 12.32463254047791 19.50444671865804 -1.516337421139665
767 1 15.07074716529786 19.53448086425463 -1.516341717309095
768 1 14.1266997970944 21.74015766510953 -0.2241233909825623
769 1 16.87363666649699 21.75941183535576 -0.2241402176042807
770 1 15.93368177664164 23.97050169158212 1.068081169301617
771 1 18.68037147097206 23.98237808546759 1.068064962728876
772 1 17.74388587785735 26.19816961551467 2.360285038325319
773 1 20.48992801241393 26.20513260847934 2.360274320828988
774 1 19.55639392391054 28.42478899157685 3.652490877297772
775 1 22.30170545590057 28.4285183490248 3.652486460063891
776 1 14.15545559205835 19.52635881451518 -4.100714222599547
777 1 16.90061511561698 19.54496442344199 -4.100718964949076
778 1 15.95821173842569 21.75456341270264 -2.808510916389139
779 1 18.70348332682377 21.76460721211129 -2.808515600268946
780 1 17.76508934710269 23.97966670257653 -1.516307140162221
781 1 20.50987773982381 23.9843599955298 -1.516305854779723
782 1 19.5748722544423 26.20378695656608 -0.2240999933637317
783 1 22.31903980391301 26.20519941078237 -0.2240922321612301
784 1 21.3868783343339 28.42803645367098 1.068110101517687
785 1 24.13046180014401 28.42746562796993 1.068123052573196
786 1 19.59531278640874 23.98391791079284 -4.100684680675636
787 1 22.33777975164521 23.98229548029553 -4.100661833729188
788 1 21.40465675378519 26.20558106133012 -2.808473083430234
789 1 24.14672669405789 26.20223513910768 -2.80844556473695
790 1 23.21623619008998 28.42830921947004 -1.516259171583009
791 1 25.95798584976003 28.42410850370023 -1.516229076419776
792 1 25.04437823109059 28.42604580289648 -4.100616822926989
793 1 27.78429596167755 28.41891317284115 -4.100571271132646
794 1 -29.35077706287023 -19.05149566741184 2.361258809211224
795 1 -30.2626799438165 -16.80313723188384 3.653297675380032
796 1 -27.54468876454614 -16.83156242329553 3.653434352765342
797 1 -29.34164611914242 -21.28767962396245 -1.515221035987301
798 1 -30.25836939469009 -19.04340679895734 -0.2231577241354087
799 1 -27.53493120538585 -19.06784646769957 -0.2230300342981891
800 1 -28.45082298821416 -16.82186169387388 1.069011499118111
801 1 -25.73159987356617 -16.85120232183802 1.069158887666676
802 1 -26.64609979818189 -14.60296037657963 2.361173542822992
803 1 -23.93255326220433 -14.6388112720162 2.361345543456084
804 1 -24.84477300483497 -12.38756602691975 3.65332670293635
805 1 -22.13908620872383 -12.43236256834233 3.653530306762175
806 1 -30.25072315311251 -21.28077360340926 -4.099633878329679
807 1 -27.52267435714188 -21.30124919533986 -4.099520548523207
808 1 -28.44298455228663 -19.05966688778807 -2.807448402020873
809 1 -25.71778649166606 -19.08385056479512 -2.807319024863101
810 1 -26.6383106269616 -16.84138006710591 -1.515266199629172
811 1 -23.91680966940727 -16.87026917137817 -1.515117910956603
812 1 -24.83747006243827 -14.6268211729074 -0.2230878164135449
813 1 -22.12081759665733 -14.66173630250311 -0.2229176088746917
814 1 -23.0415565896519 -12.41743714613917 1.069086678682441
815 1 -20.33130533869889 -12.46002910689253 1.069280800725123
816 1 -21.25224722693235 -10.21574221003839 2.361258638728554
817 1 -18.55039236584474 -10.26749342445499 2.361473211160377
818 1 -19.47242177067002 -8.026617015546242 3.653433088249648
819 1 -16.7812146370369 -8.085274693539844 3.653643738537085
820 1 -24.82446384063075 -16.86088881114983 -4.099541254609086
821 1 -22.09960517297244 -16.88727970380554 -4.099405490509215
822 1 -23.02704815595649 -14.65054572111716 -2.807347060395883
823 1 -20.30572364703185 -14.68108061255787 -2.807199729645156
824 1 -21.23573754285655 -12.44673865845453 -1.515153901143748
825 1 -18.51866410494076 -12.48079590326675 -1.515003361623955
826 1 -19.45265346445706 -10.25235538988931 -0.2229619019439625
827 1 -16.74054758496884 -10.28537409675203 -0.2228301713413335
828 1 -17.68105980547464 -8.071538602609305 1.069224080734252
829 1 -14.97626298657291 -8.084181701311993 1.069308047485308
830 1 -15.92666215864685 -5.903669483721717 2.361373209399536
831 1 -13.25066265211158 -5.831654600663535 2.361556348189136
832 1 -14.22806038705012 -3.670121666367114 3.653623924198306
833 1 -11.66135815370474 -3.461975984325066 3.654158248103304
834 1 -19.42563698221836 -12.47160838155078 -4.099418318994918
835 1 -16.70109409393016 -12.48934654588206 -4.099330726454113
836 1 -17.64630235817179 -10.27890103882388 -2.807232991836637
837 1 -14.92597073977096 -10.28011182229773 -2.807173958199066
838 1 -15.87919203962263 -8.089945035813397 -1.515083651155225
839 1 -13.17336037226277 -8.043250330867098 -1.514978478112315
840 1 -14.13886293662011 -5.871584464232292 -0.2229283616272227
841 1 -11.48550561958081 -5.736949005023702 -0.2225257324262343
842 1 -12.51987917287333 -3.521879173492115 1.069680272962092
843 1 -9.918983875660325 -3.372679023326636 1.069817429193185
844 1 -11.10508857023611 -1.123225892106608 2.36147878690202
845 1 -8.406837339765842 -1.045734814994349 2.361338972782612
846 1 -6.875610227262156 1.166420945748998 3.65267886201573
847 1 -4.102808592551908 1.231662699496537 3.652739883116095
848 1 -14.07392562439581 -8.068100185495773 -4.099411224546428
849 1 -11.37882193464466 -7.977144383938706 -4.099162634644166
850 1 -12.36688190259654 -5.784839015627921 -2.807047993281862
851 1 -9.721160204174717 -5.649587757613969 -2.806681718302106
852 1 -10.79436584918647 -3.413071754706909 -1.514555380071447
853 1 -8.147588807622251 -3.308894916703742 -1.514607681839575
854 1 -9.310275267263918 -1.06861972902539 -0.2230001738284607
855 1 -6.593222085345567 -1.005082866182807 -0.2230882303226657
856 1 -5.024436879664528 1.211612648036053 1.068350392250887
857 1 -2.264742227719637 1.268672762058931 1.068381509200741
858 1 -3.408337931273562 3.475411561268236 2.360001141029338
859 1 -0.6444173441893113 3.536864402842842 2.36001536068731
860 1 -1.751698097227287 5.745559581248449 3.651862915438015
861 1 0.9996423312305807 5.813893442329117 3.651838882088594
862 1 -9.036310837371214 -3.33852403856613 -4.098953714673916
863 1 -6.356137576254459 -3.258662397213622 -4.099042605524161
864 1 -7.500942031024898 -1.024715871246133 -2.807439777522472
865 1 -4.773825331147981 -0.968676231928036 -2.807498219698317
866 1 -3.183028703089916 1.25058627528237 -1.515999936558318
867 1 -0.4317644761688662 1.303201201299013 -1.51598972764329
868 1 -1.563228063300285 3.517177051811828 -0.2243613909999728
869 1 1.186573433927905 3.57519706564152 -0.2243662229812774
870 1 0.08508670078576475 5.791450385182642 1.067470815810895
871 1 2.821145554526127 5.859207578458745 1.06745254823806
872 1 1.755486056159116 8.077934371732168 2.359506263443135
873 1 4.478685496441255 8.156972888989731 2.359543901078475
874 1 3.450682222123318 10.37291764364787 3.651749342751964
875 1 6.17037541764345 10.45887281183847 3.651878525814134
876 1 -1.347707958188501 1.28614891800629 -4.100365153587448
877 1 1.397210978219121 1.336663373292327 -4.100371660970479
878 1 0.2721520589727688 3.55612503899357 -2.808736161019339
879 1 3.00899478081051 3.613682284178445 -2.808761959418651
880 1 1.911670753138656 5.83638378623798 -1.516917238362639
881 1 4.632140292104326 5.907078780574517 -1.516926805068371
882 1 3.573174191870619 8.129908895177431 -0.2248518453297211
883 1 6.283325107539572 8.214464881556578 -0.2247576560849037
884 1 5.265066012970172 10.42963077583935 1.067449591481076
885 1 7.978403340844638 10.5189459059478 1.067641239265815
886 1 6.992128327456157 12.72284835294553 2.359859925916961
887 1 9.717059175900721 12.80324691996542 2.360042530287012
888 1 8.7503385525024 15.00002235547887 3.652241142373117
889 1 11.48645212581408 15.0630697214391 3.65234603307778
890 1 3.728001919057194 5.882664413239538 -4.101300978075844
891 1 6.431745264042676 5.960265446499347 -4.101287289190855
892 1 5.382036138830568 8.185083577667953 -2.809175225008886
893 1 8.080500651653711 8.277663089578207 -2.809005851941783
894 1 7.074723156928034 10.48868986434321 -1.516807101092209
895 1 9.785202272079037 10.57948982181165 -1.516571046166504
896 1 8.80857717391892 12.77729175072799 -0.2243928667235052
897 1 11.53544563940162 12.85021953257121 -0.2242289460169594
898 1 10.57406715356578 15.04384575329929 1.067941629494234
899 1 13.31216519483741 15.09439908315896 1.068009748503086
900 1 12.35918354642753 17.29134485152479 2.360196049858397
901 1 15.1025985792678 17.32314568488121 2.360209345755999
902 1 14.15545559205835 19.52635881451518 3.652410711257454
903 1 16.90061511561698 19.54496442344199 3.652405968907924
904 1 8.881766338342354 10.54936382234962 -4.101028777653497
905 1 11.59382523012327 10.6360332887338 -4.10079261628196
906 1 10.62597220766645 12.82774237951618 -2.80865179119402
907 1 13.35614620011182 12.88674848248563 -2.808538327340712
908 1 12.39917662558642 15.08002913828566 -1.516381275158357
909 1 15.13836819586889 15.11439484387724 -1.516347356458955
910 1 14.18818426935994 17.31488390238199 -0.2241678784037185
911 1 16.93059035566073 17.33248138872415 -0.2241592360698242
912 1 15.98583266713564 19.54067530868362 1.068031265591137
913 1 18.72891495323817 19.5481143934529 1.068040154870504
914 1 17.78874788782915 21.76273761675845 2.360232950695231
915 1 20.53162831573559 21.76434776315565 2.360248979931572
916 1 19.59531278640874 23.98391791079284 3.652440253181363
917 1 22.33777975164521 23.98229548029553 3.652463100127812
918 1 14.22528749859299 15.10591387718637 -4.100729590068272
919 1 16.96358578116135 15.12208901412582 -4.100707013846864
920 1 16.01677981385327 17.32900095054607 -2.808538342651969
921 1 18.75660320440904 17.33276548581965 -2.808513816076473
922 1 17.81500281803688 19.54741088148828 -1.516341359927021
923 1 20.55506948196041 19.5448416886495 -1.516307339292068
924 1 19.61779044836332 21.76510867777823 -0.2241354122729194
925 1 22.35779718562041 21.75952318878502 -0.2240940031747046
926 1 21.42403936376245 23.983788581622 1.068076716351968
927 1 24.16397023634786 23.97693216667917 1.068121971988211
928 1 23.23306502107675 26.2040593113894 2.360291947569299
929 1 25.97296657936427 26.19683547491703 2.360338255726993
930 1 25.04437823109059 28.42604580289648 3.65250811093001
931 1 27.78429596167755 28.41891317284115 3.652553662724355
932 1 19.64228612434407 19.54720614869962 -4.100698606249282
933 1 22.3787855941483 19.53644035553391 -4.100634321370589
934 1 21.44496883865573 21.76244343459971 -2.808487167274086
935 1 24.1819214873752 21.75116059448933 -2.808420459766429
936 1 23.25109008183469 23.97997719326303 -1.516271706578545
937 1 25.98847852129117 23.96905081937413 -1.516206208181173
938 1 25.06002521655433 26.19980226127281 -0.2240550710212558
939 1 27.79782582638553 26.1895886429236 -0.2239927368114082
940 1 26.87128908027396 28.42171199815494 1.068161163290427
941 1 29.60946792202995 28.41232488839391 1.06821944390357
942 1 25.07642808509776 23.97325830304282 -4.100606026527993
943 1 27.81144502863977 23.95939237465589 -4.100524599405116
944 1 26.88556172696997 26.19340765587978 -2.808390811611602
945 1 29.62143801620704 26.18103620036035 -2.808316322095833
946 1 28.69701765455768 28.41576678913082 -1.516176773337179
947 1 -29.33068514190196 -23.52160755300715 2.361402697700578
948 1 -30.25072315311251 -21.28077360340926 3.653491055527321
949 1 -27.52267435714188 -21.30124919533986 3.653604385333793
950 1 -29.3187872811146 -25.75387828363732 -1.515117126607076
951 1 -30.24100860832442 -23.51584617819068 -0.2230053859500413
952 1 -27.50916990619769 -23.53260149488263 -0.2229085899145443
953 1 -28.43231200965086 -21.29452916839697 1.069191892954475
954 1 -25.70230431314887 -21.31394976650404 1.069300753586491
955 1 -26.6265534298423 -19.07594382758822 2.361388322077326
956 1 -23.89883511962612 -19.09856635478179 2.361510450607868
957 1 -24.82446384063075 -16.86088881114983 3.653583679247914
958 1 -22.09960517297244 -16.88727970380554 3.653719443347784
959 1 -30.23013343538015 -25.74917820930898 -4.099520094264616
960 1 -27.49523937408301 -25.76256363909332 -4.099440083006675
961 1 -28.42008357136381 -23.52721504321077 -2.807314841203306
962 1 -25.68627910296363 -23.54240333969189 -2.807226373928229
963 1 -26.61268674546921 -21.307754944354 -1.515109075265245
964 1 -23.88019413008212 -21.32496311323351 -1.515012017870446
965 1 -24.80856686488315 -19.09143979862592 -0.2229030444123371
966 1 -22.07763832828924 -19.11076838460206 -0.222798351422537
967 1 -23.00854924500357 -16.87914262781214 1.069302738847688
968 1 -20.27945009814382 -16.90031325147369 1.069411774185605
969 1 -21.21374018642307 -14.67204274946473 2.361507057814181
970 1 -18.48672998748408 -14.69369153544861 2.361612596286489
971 1 -19.42563698221836 -12.47160838155078 3.653706614862082
972 1 -16.70109409393016 -12.48934654588206 3.653794207402886
973 1 -24.79148552104581 -21.31972544282015 -4.099416639642342
974 1 -22.05608765256444 -21.33330646460768 -4.099338687633432
975 1 -22.98853925926259 -19.10506805882894 -2.807204342839014
976 1 -20.25393388889945 -19.11901367761397 -2.80712610809188
977 1 -21.18991743423264 -16.8944266790542 -1.514993870806791
978 1 -18.45618695915643 -16.90720995409831 -1.514921288017498
979 1 -19.3967185354522 -14.68843656652063 -0.2227893885730491
980 1 -16.66413063848289 -14.696375522419 -0.2227307985307093
981 1 -17.61042858783014 -12.48691135322967 1.069400305790776
982 1 -14.88030531860839 -12.48155251712816 1.069442956566703
983 1 -15.83355959831377 -10.28595188884226 2.361561667288744
984 1 -13.11168645691464 -10.24984297772593 2.361632702491723
985 1 -14.07392562439581 -8.068100185495773 3.653713709310573
986 1 -11.37882193464466 -7.977144383938706 3.653962299212833
987 1 -19.36819722811488 -16.90466352587271 -4.099313989675891
988 1 -16.63018104363026 -16.90595866118261 -4.099277341103737
989 1 -17.57582471052968 -14.69645044762201 -2.807118307059243
990 1 -14.83913019518357 -14.68684470766195 -2.807090310151901
991 1 -15.79093568646381 -12.48764217956966 -1.514943134574566
992 1 -13.05909603090309 -12.45647697093682 -1.514894554107385
993 1 -14.01847867098232 -10.26788463293666 -0.222777750789897
994 1 -11.30145638393912 -10.20044840074546 -0.2226204731348908
995 1 -12.27506395394794 -8.012065436856439 1.06948235190531
996 1 -9.589525394740166 -7.904358534353989 1.069805082166408
997 1 -10.60419792956579 -5.691388882507168 2.361974229086378
998 1 -7.946154666702128 -5.577671452587817 2.362173196825878
999 1 -9.036310837371214 -3.33852403856613 3.654171219183083
1000 1 -6.356137576254459 -3.258662397213622 3.654082328332839
1001 1 -13.9695787125897 -12.4710810575881 -4.099292246701988
1002 1 -11.23976128555715 -12.41681865111545 -4.099191870012
1003 1 -12.20597631191037 -10.22696813958652 -2.80706437539324
1004 1 -9.495234134942203 -10.14111405006748 -2.806829497034342
1005 1 -10.48393722849802 -7.940707822087473 -1.514676334382761
1006 1 -7.798889548617172 -7.835387994733447 -1.51439691918416
1007 1 -8.8353131623292 -5.611790028962017 -0.2222422913305372
1008 1 -6.157579805297403 -5.518308558321125 -0.2221682524507907
1009 1 -7.253906801081364 -3.282566023536475 1.069736634022071
1010 1 -4.550855678777733 -3.215749702269772 1.06965814232921
1011 1 -5.684090953770725 -0.986490242003234 2.361267533141361
1012 1 -2.950575477788951 -0.9345876219123086 2.361228326933501
1013 1 -1.347707958188501 1.28614891800629 3.652759780269552
1014 1 1.397210978219121 1.336663373292327 3.652753272886521
1015 1 -8.694740032807511 -7.8690853717928 -4.098850619486972
1016 1 -6.002135191448766 -7.773150119154371 -4.09866124893902
1017 1 -7.053553135658168 -5.546699249050109 -2.806553897792345
1018 1 -4.356193639807156 -5.467236458213703 -2.806542710477247
1019 1 -5.454952559207155 -3.236548510679995 -1.514694019864672
1020 1 -2.735294358055167 -3.176699680261937 -1.514750881948246
1021 1 -3.862612024655567 -0.9514329663881617 -0.2231361807942148
1022 1 -1.124309914563243 -0.9015017228476598 -0.2231611278964404
1023 1 0.4831902892471287 1.319990613472237 1.068383051864459
1024 1 3.222463184765767 1.37021978052529 1.068360952648833
1025 1 2.098869687901574 3.594306640642297 2.36000016500783
1026 1 4.822180884193981 3.65424746443398 2.359953175428466
1027 1 3.728001919057194 5.882664413239538 3.651823955781156
1028 1 6.431745264042676 5.960265446499347 3.651837644666145
1029 1 -3.644216101464814 -3.195898791635945 -4.09911078813812
1030 1 -0.9112102289070021 -3.139281187955882 -4.099144431068344
1031 1 -2.037794136582295 -0.9179896957901268 -2.807529891569315
1032 1 0.7047571669759281 -0.8683270394236191 -2.807542593316756
1033 1 2.310310844352413 1.353359379994583 -1.516004011545965
1034 1 5.043596406805737 1.405052331878323 -1.516043126766145
1035 1 3.916830847247948 3.633569485668754 -0.2244026936925888
1036 1 6.62416284457048 3.699395306922448 -0.2244683894436806
1037 1 5.533434181279393 5.932810935509782 1.067451893126641
1038 1 8.218993063818862 6.02217792010317 1.06752017128825
1039 1 7.18272265695089 8.24529483770805 2.359673364422753
1040 1 9.872971400949272 8.346504621371535 2.359928030759119
1041 1 8.881766338342354 10.54936382234962 3.652096156203503
1042 1 11.59382523012327 10.6360332887338 3.65233231757504
1043 1 4.133598444391341 1.387394711319628 -4.100401924882182
1044 1 6.859350124990503 1.442654275163463 -4.100462485748523
1045 1 5.724756795052988 3.676050297641694 -2.808818928366566
1046 1 8.411226385632338 3.753049812543641 -2.808892015095322
1047 1 7.326951057829433 5.989893218705943 -1.516891032555061
1048 1 9.994184133388453 6.096467433640642 -1.516716859864691
1049 1 8.977063815996164 8.311504491665954 -0.2245453290151816
1050 1 11.66573000093078 8.416770064769171 -0.2242353189822449
1051 1 10.68910657597604 10.60866706576036 1.067884525950189
1052 1 13.40641853368173 10.68114865670478 1.068061148350437
1053 1 12.4455238848738 12.8700818509613 2.36018405207902
1054 1 15.17823959955664 12.9086443416618 2.360242282511293
1055 1 14.22528749859299 15.10591387718637 3.652395343788728
1056 1 16.96358578116135 15.12208901412582 3.652417920010135
1057 1 9.107955605638017 6.057588811219738 -4.101173407473567
1058 1 11.76202524796215 6.183801907446821 -4.100848889057192
1059 1 10.768929985752 8.381981768521374 -2.808715735794836
1060 1 13.46448884072368 8.476991030624738 -2.808445386960466
1061 1 12.49958422931286 10.66056021366014 -1.516357735908782
1062 1 15.22227349938032 10.70668480237224 -1.516268312020834
1063 1 14.26714093639775 12.8997198886394 -0.2241449622094452
1064 1 16.99941045705159 12.91397380136737 -0.2241086747130699
1065 1 16.05120404445672 15.11977104452266 1.068034190629735
1066 1 18.78625438256955 15.1182921117278 1.06807678706565
1067 1 17.84390140872104 17.33368424393939 2.360223451259983
1068 1 20.57987879258887 17.32541078920242 2.360279660561037
1069 1 19.64228612434407 19.54720614869962 3.652426327607718
1070 1 22.3787855941483 19.53644035553391 3.652490612486411
1071 1 14.31412599755614 10.69677813183412 -4.100660488851482
1072 1 17.03748272167741 10.7084199517889 -4.100610765864668
1073 1 16.08911113642444 12.91337066304085 -2.808497163665579
1074 1 18.81714286954746 12.90415790207402 -2.808432470061927
1075 1 17.87532105152873 15.1215095343492 -1.516318492222458
1076 1 20.60535297901736 15.10532202024893 -1.516233922348908
1077 1 19.66861281705834 17.32992862633638 -0.2241202361192941
1078 1 22.40013574942627 17.31236028756157 -0.2240274469008793
1079 1 21.4672382359757 19.54119296758858 1.06808913209997
1080 1 24.20007943354208 19.52434364157503 1.068181655379369
1081 1 23.27011142030286 21.75571848836375 2.360303332242042
1082 1 26.00411899822444 21.74028852459596 2.360391218894422
1083 1 25.07642808509776 23.97325830304282 3.652518907329007
1084 1 27.81144502863977 23.95939237465589 3.652600334451884
1085 1 19.69628101153882 15.11277024442255 -4.100645026781361
1086 1 22.42071044100414 15.08620959474844 -4.100516074245607
1087 1 21.49038238619626 17.31946784601437 -2.808439177286996
1088 1 24.2175685870259 17.29564634100781 -2.808315820950797
1089 1 23.2897233467226 19.53076523156287 -1.516228285979464
1090 1 26.01922044747216 19.50990998410149 -1.516114834765067
1091 1 25.09324771290493 21.7459769926478 -0.224015997395579
1092 1 27.82464358595927 21.72783509345936 -0.2239134613984809
1093 1 26.90014233766978 23.96440050212982 1.068196065015847
1094 1 29.63308539084677 23.94860873524139 1.068288067950214
1095 1 28.70977749342792 26.18544436431176 2.360407191973194
1096 1 25.10989487674739 19.51734129463622 -4.100530205704176
1097 1 27.83663434290165 19.49428594482661 -4.100405423645593
1098 1 26.91457087761612 21.73420726189426 -2.808324353135409
1099 1 29.64382527701108 21.71457059688557 -2.808214357465582
1100 1 28.72241559219953 23.95410476432468 -1.516118801165866
1101 1 -29.30656163777919 -27.9849843966515 2.361472380937881
1102 1 -30.23013343538015 -25.74917820930898 3.653604839592384
1103 1 -27.49523937408301 -25.76256363909332 3.653684850850325
1104 1 -29.29441451639745 -30.21531848677379 -1.515075750707593
1105 1 -30.21873315035978 -27.98124136064141 -0.2229255428030587
1106 1 -27.48141124273965 -27.99164417290988 -0.222861494250291
1107 1 -28.40716390399734 -25.75835986520301 1.069284646346198
1108 1 -25.67040258057669 -25.76987509029567 1.069354129210683
1109 1 -26.59791168498814 -23.53769182657613 2.361496039129966
1110 1 -23.86179237015626 -23.55032541726585 2.361570486658325
1111 1 -24.79148552104581 -21.31972544282015 3.653708294214658
1112 1 -22.05608765256444 -21.33330646460768 3.653786246223568
1113 1 -30.20724334503428 -30.2124220968331 -4.099468944226364
1114 1 -27.46801574389224 -30.22022715861553 -4.099419489027385
1115 1 -28.39412639359718 -27.98846904982656 -2.807256126802362
1116 1 -25.65508836616169 -27.99684543566013 -2.807203667602924
1117 1 -26.58299189007964 -25.76642511169393 -1.515041822667597
1118 1 -23.84414260755926 -25.77524487098851 -1.514987133202592
1119 1 -24.77424624447158 -23.54664638229836 -0.2228264345645096
1120 1 -22.0355720432979 -23.55558937712818 -0.2227710674264803
1121 1 -22.96840129655553 -21.32953492358028 1.069389105831439
1122 1 -20.22987884569648 -21.33789858366358 1.069442428466091
1123 1 -21.16610601564484 -19.11548063163427 2.361602845331042
1124 1 -18.42773928810072 -19.12179979246609 2.361650014362484
1125 1 -19.36819722811488 -16.90466352587271 3.653810944181109
1126 1 -16.63018104363026 -16.90595866118261 3.653847592753263
1127 1 -24.7574563321963 -25.77284040229395 -4.09937749879168
1128 1 -22.01639793341329 -25.77805922228461 -4.099341016480158
1129 1 -22.94890319074741 -23.55334052891673 -2.807160918394967
1130 1 -20.20760093237696 -23.55738142125942 -2.80712788678569
1131 1 -21.14324520298067 -21.33614002225607 -1.514945878447072
1132 1 -18.40166338524864 -21.33767424132508 -1.514919031909697
1133 1 -19.34113383608456 -19.1211791690923 -0.2227354752984464
1134 1 -16.59940425088509 -19.11780470497425 -0.2227168314428417
1135 1 -17.54348274671558 -16.90770924401529 1.069465525051996
1136 1 -14.80229574764738 -16.89518431733796 1.069479280333026
1137 1 -15.75182772513583 -14.6932182856846 2.361652532760875
1138 1 -13.0134345869729 -14.66454981668013 2.3616820243498
1139 1 -13.9695787125897 -12.4710810575881 3.653832687155012
1140 1 -11.23976128555715 -12.41681865111545 3.653933063845
1141 1 -19.31600731695337 -21.33845045357042 -4.099298664783348
1142 1 -16.57175453802254 -21.33173339463657 -4.099295217861719
1143 1 -17.51380486600301 -19.12071804060941 -2.807094019160594
1144 1 -14.7695696642152 -19.10615009683474 -2.807093850943136
1145 1 -15.71640516265674 -16.90181073533682 -1.514898409806716
1146 1 -12.97365391299692 -16.87453111076972 -1.514886405224826
1147 1 -13.9262627092751 -14.67724850679643 -0.2227063965190202
1148 1 -11.18852567375824 -14.63085229194433 -0.2226460518125021
1149 1 -12.14911118785745 -12.43819329308421 1.069513710301006
1150 1 -9.42291412261817 -12.3673722474511 1.069673121041006
1151 1 -10.39798333453456 -10.1714789134986 2.361834825985507
1152 1 -7.690221331893097 -10.07930487343953 2.362085263359565
1153 1 -8.694740032807511 -7.8690853717928 3.654274314370028
1154 1 -6.002135191448766 -7.773150119154371 3.654463684917979
1155 1 -13.88799895143104 -16.88607030275103 -4.099267257572593
1156 1 -11.14527436680097 -16.8447393781118 -4.099237471609103
1157 1 -12.10081680135363 -14.64897948906231 -2.807048096673935
1158 1 -9.365079277576806 -14.58840928305128 -2.806947080266252
1159 1 -10.33106036003852 -12.39299993086245 -1.51476283178644
1160 1 -7.607538088674813 -12.31287976496182 -1.51457298220598
1161 1 -8.592792140947092 -10.11018955824092 -0.2223694663821826
1162 1 -5.883133200611442 -10.01901573640382 -0.2221576149665604
1163 1 -6.901467631063543 -7.80342676769031 1.07004078205449
1164 1 -4.196995946551395 -7.716901456894453 1.07014799305113
1165 1 -5.258397376156064 -5.491975093373119 2.362209428090368
1166 1 -2.543395987156857 -5.420985678236192 2.362196084235267
1167 1 -3.644216101464814 -3.195898791635945 3.65401414571888
1168 1 -0.9112102289070021 -3.139281187955882 3.653980502788655
1169 1 -8.515147766284715 -12.34050675834367 -4.099012387179183
1170 1 -5.791825642219805 -12.25671617496493 -4.098831024845492
1171 1 -6.787117072148753 -10.04884422229854 -2.806593463590758
1172 1 -4.071476902116174 -9.961457844031763 -2.806444300528847
1173 1 -5.100683546695568 -7.744386105715169 -1.514251217532389
1174 1 -2.382717531555104 -7.664722973369023 -1.514203986641559
1175 1 -3.451144722915432 -5.443690651892863 -0.2221726556586486
1176 1 -0.7201761703026432 -5.37686147026363 -0.2221922416432981
1177 1 -1.82426124456834 -3.157901799268963 1.069612900452675
1178 1 0.9209228648215051 -3.101719290728158 1.069601992574482
1179 1 -0.2101329698669832 -0.8849918300747799 2.3612096124599
1180 1 2.536929636408873 -0.8339531909891325 2.361209313153044
1181 1 4.133598444391341 1.387394711319628 3.652723008974817
1182 1 6.859350124990503 1.442654275163463 3.652662448108476
1183 1 -3.291014928621816 -7.690436361047321 -4.098586710064376
1184 1 -0.5591564597336622 -7.614483751004133 -4.098582265875316
1185 1 -1.633052754627031 -5.398806459345299 -2.806560548131316
1186 1 1.11316170136313 -5.332548265149061 -2.806580599514445
1187 1 0.003835796047317208 -3.120625288534746 -1.514773068975648
1188 1 2.76177405074831 -3.062200521129757 -1.514762081646888
1189 1 1.62041387766265 -0.8513664246999693 -0.223167780388979
1190 1 4.373180371052494 -0.7969968674319855 -0.2231531536687529
1191 1 5.952271815038456 1.423390625451627 1.068311903511175
1192 1 8.666901335044562 1.485342563033269 1.068220767243139
1193 1 7.519875775887884 3.724822528717405 2.359881316796481
1194 1 10.17746855519274 3.822119286463698 2.359840366842172
1195 1 9.107955605638017 6.057588811219738 3.651951526383433
1196 1 11.76202524796215 6.183801907446821 3.652276044799808
1197 1 1.840169255306274 -3.082332172396709 -4.099144256584428
1198 1 4.613352850449629 -3.018355594885382 -4.099113555132014
1199 1 3.454447457035569 -0.8159044584019675 -2.807535927926825
1200 1 6.215714016308381 -0.7553647441532463 -2.807500110745779
1201 1 7.764427209417246 1.463160651257922 -1.516117425542301
1202 1 10.45983783846287 1.537558985970706 -1.516256628916115
1203 1 9.29739660113632 3.785046640735478 -0.22453357139659
1204 1 11.91659005770574 3.918466993522827 -0.224426920280454
1205 1 10.87843757988515 6.138797485263304 1.06776753126636
1206 1 13.53469189582897 6.27153903743211 1.068169631054178
1207 1 12.56410093309303 8.449160879087886 2.36023324116492
1208 1 15.27040086972746 8.510155527639656 2.360371977728089
1209 1 14.31412599755614 10.69677813183412 3.652464445005517
1210 1 17.03748272167741 10.7084199517889 3.652514167992331
1211 1 9.565854641060312 1.509823391267586 -4.1005747425984
1212 1 12.2215748151162 1.610391825987597 -4.100790567935483
1213 1 11.05061216480311 3.865958564194939 -2.808880884660961
1214 1 13.63602836032837 4.050578962394225 -2.80844019984268
1215 1 12.64678877594793 6.229370564565703 -1.516331050071187
1216 1 15.3225275552404 6.322776499591378 -1.516088941438595
1217 1 14.36682246897555 8.497958727116023 -0.2240259439271531
1218 1 17.07639631529911 8.505750914174948 -0.2239600710719335
1219 1 16.13026859193753 10.7105179268 1.068120379363927
1220 1 18.84764994090736 10.6892052567404 1.068216277018224
1221 1 17.90883011197253 12.91074627538337 2.360286958998741
1222 1 20.6300666991799 12.88329078455506 2.360410188573354
1223 1 19.69628101153882 15.11277024442255 3.652479907075639
1224 1 22.42071044100414 15.08620959474844 3.652608859611393
1225 1 14.42686815013089 6.30462643542974 -4.100498445122611
1226 1 17.11241132973676 6.305526625876617 -4.100398058531844
1227 1 16.1740290489737 8.5126377380817 -2.808361871283338
1228 1 18.87399224922915 8.47064354702669 -2.808210993611629
1229 1 17.94338634591679 10.70099906955379 -1.516204962409922
1230 1 20.65110948833915 10.65696958032856 -1.516024697556547
1231 1 19.72422631085807 12.89479457577463 -0.2240161599202118
1232 1 22.43841422643699 12.85629577055753 -0.2238407709458595
1233 1 21.51347767614124 15.09634077169102 1.068184476372337
1234 1 24.23289370375817 15.06386953832246 1.068343840104523
1235 1 23.30917778838034 17.30434109356777 2.360389018396368
1236 1 26.03270602679912 17.27705422820054 2.360530517560881
1237 1 25.10989487674739 19.51734129463622 3.652594728152824
1238 1 27.83663434290165 19.49428594482661 3.652719510211407
1239 1 19.75018267994296 10.67415631246445 -4.10047244209759
1240 1 22.44933967502241 10.61996726991037 -4.100239421656307
1241 1 21.53474534578494 12.87026920121904 -2.808280394544699
1242 1 24.2435190234437 12.82732937625219 -2.808081909561553
1243 1 23.32714351618751 15.07528201796467 -1.516087378455656
1244 1 26.04286658024803 15.04059418180554 -1.515917728178976
1245 1 25.12538327004866 17.28648878304501 -0.2238932865555131
1246 1 27.8462269310632 17.25795696673852 -0.2237471549195088
1247 1 26.92811337702382 19.50218536859887 1.068302000298269
1248 1 29.65280525618297 19.47835122452301 1.068428868009724
1249 1 28.734380249435 21.72126295445911 2.360498365745175
1250 1 25.13809059454 15.05223551431812 -4.100349064706315
1251 1 27.85165591894438 15.0179190253284 -4.100186659746869
1252 1 26.93962480114544 17.26750029103723 -2.808170417383261
1253 1 29.65880870516033 17.23929585751269 -2.808030655480159
1254 1 28.74484487556239 19.48631298857092 -1.515987951194825
1255 1 -30.20724334503428 -30.2124220968331 3.653655989630636
1256 1 -27.46801574389224 -30.22022715861553 3.653705444829615
1257 1 -28.38134209994995 -30.21793465617821 1.069315788308184
1258 1 -25.64057096586473 -30.22365807394385 1.069353350728606
1259 1 -26.56840226851964 -27.99445535771326 2.361531058708666
1260 1 -23.82751866175552 -28.00012390144836 2.36156881544511
1261 1 -24.7574563321963 -25.77284040229395 3.653747435065319
1262 1 -22.01639793341329 -25.77805922228461 3.653783917376841
1263 1 -26.55442725316098 -30.22215059530275 -1.515031927280235
1264 1 -23.81204712121178 -30.22523358219063 -1.515008471253487
1265 1 -24.74146178893116 -27.99875513561268 -0.2228160400472662
1266 1 -21.99868924500742 -28.00099594930585 -0.2227952156205703
1267 1 -22.93045620837819 -25.7770105525079 1.069400058105213
1268 1 -20.18720173163083 -25.77770162576851 1.069416535296763
1269 1 -21.12180087452293 -23.55696957435528 2.361614933794714
1270 1 -18.37800761837973 -23.55493273687606 2.361625260463395
1271 1 -19.31600731695337 -21.33845045357042 3.653826269073651
1272 1 -16.57175453802254 -21.33173339463657 3.65382971599528
1273 1 -24.7264441095867 -30.224701769259 -4.099388746745304
1274 1 -21.98246206919509 -30.2245723709024 -4.099380780624323
1275 1 -22.91325943441637 -28.0008908636188 -2.807174173723385
1276 1 -20.16866130155337 -27.9989915977125 -2.807171138359598
1277 1 -21.10197507893786 -25.77831408053939 -1.514960556945572
1278 1 -18.35669383538424 -25.77360909426287 -1.514963661185862
1279 1 -19.29299307412617 -23.55673089409732 -0.2227495528874922
1280 1 -16.54706812913959 -23.54761418726762 -0.22275887955179
1281 1 -17.48689316952854 -21.33546389415313 1.06945687096697
1282 1 -14.74064676795862 -21.31949073803574 1.069444669018006
1283 1 -15.68462629684677 -19.11296622907189 2.361657775181778
1284 1 -12.93902577435408 -19.08659373404014 2.361653981155709
1285 1 -13.88799895143104 -16.88607030275103 3.653857676284407
1286 1 -11.14527436680097 -16.8447393781118 3.653887462247897
1287 1 -19.27209881148766 -25.77615362522651 -4.099334535962829
1288 1 -16.52511732484233 -25.76533387799101 -4.099354373705763
1289 1 -17.46268370010279 -23.55191347963819 -2.80712797918292
1290 1 -14.71517774811378 -23.53502551806524 -2.807150874214166
1291 1 -15.65631464489281 -21.32642072502627 -1.514924609653203
1292 1 -12.90892904155248 -21.30078011594473 -1.514942076652803
1293 1 -13.85433648939418 -19.09734761232293 -0.2227205365068675
1294 1 -11.10851624950652 -19.0595689690495 -0.2227147468101297
1295 1 -12.05938128840017 -16.86069401162039 1.069498241690087
1296 1 -9.317766024542403 -16.80737311398919 1.06955475219005
1297 1 -10.27661538397391 -14.61053418995226 2.361762986859585
1298 1 -7.542853327032697 -14.54020022636108 2.361892477119167
1299 1 -8.515147766284715 -12.34050675834367 3.654112546677816
1300 1 -5.791825642219805 -12.25671617496493 3.654293909011509
1301 1 -13.82482670410096 -21.31093666384168 -4.099311395317087
1302 1 -11.07717268303562 -21.27587779975301 -4.099324298381688
1303 1 -12.0237272319871 -19.07396400253523 -2.807094262753183
1304 1 -9.278568083234434 -19.0260550734799 -2.80707137168041
1305 1 -10.2313937670342 -16.82688565202508 -1.514843515216594
1306 1 -7.491220433424639 -16.76435137426819 -1.514764711742327
1307 1 -8.45385821894042 -14.56485098326342 -0.222528211619261
1308 1 -5.720983647284197 -14.48874711765199 -0.2223945239016173
1309 1 -6.699843142648046 -12.28486100659095 1.069863287849197
1310 1 -3.973987187493932 -12.20066239519838 1.070006406339404
1311 1 -4.977991007241108 -9.989893964934771 2.362267106065658
1312 1 -2.253755100230852 -9.906255018387792 2.362350589569016
1313 1 -3.291014928621816 -7.690436361047321 3.654538223792624
1314 1 -0.5591564597336622 -7.614483751004133 3.654542667981684
1315 1 -8.404385731943131 -16.78644841472006 -4.099168515926134
1316 1 -5.665310279962804 -16.71750870598976 -4.099081487365185
1317 1 -6.631940371546504 -14.51475163948482 -2.80681220775231
1318 1 -3.898407990656686 -14.4357760071131 -2.806698869745958
1319 1 -4.883269065537411 -12.22861815525364 -1.514407916186056
1320 1 -2.152678092793551 -12.14526930477277 -1.514319081347627
1321 1 -3.163434500909586 -9.933621107976236 -0.2220416483781079
1322 1 -0.4292386022850375 -9.852300462491552 -0.2220194914155761
1323 1 -1.47209794927701 -7.639493742406392 1.070172272675103
1324 1 1.273691621830481 -7.564068519303371 1.070141143002625
1325 1 0.1952184020791223 -5.354869759991012 2.362176144636905
1326 1 2.957042319772205 -5.285696233349933 2.362152117196147
1327 1 1.840169255306274 -3.082332172396709 3.653980677272571
1328 1 4.613352850449629 -3.018355594885382 3.654011378724985
1329 1 -3.063828619259432 -12.17288322335629 -4.098713788825613
1330 1 -0.3271174133383051 -12.09034499752537 -4.098685368782393
1331 1 -1.342368948256931 -9.879204653235295 -2.806392083985719
1332 1 1.402263610377246 -9.798229357980892 -2.806427898350074
1333 1 0.3561064729654786 -7.589429852859778 -1.514217573906031
1334 1 3.11581596658605 -7.511357967176202 -1.514287476725876
1335 1 2.033729894201308 -5.30959905973882 -0.2222132615472611
1336 1 4.812553789591502 -5.233506541075938 -0.2222553989630457
1337 1 3.686031614384429 -3.041007774118727 1.069623314432498
1338 1 6.479589485167098 -2.96640352109637 1.069665100212084
1339 1 5.293444219697017 -0.7769447505534134 2.361233414025117
1340 1 8.069660798032817 -0.7051769796195306 2.361304223710744
1341 1 9.565854641060312 1.509823391267586 3.652550191258599
1342 1 12.2215748151162 1.610391825987597 3.652334365921518
1343 1 2.193598126031159 -7.538133936492177 -4.098631745450746
1344 1 4.967014919897948 -7.454228739325849 -4.098753338755688
1345 1 3.883256010688601 -5.260472485819509 -2.806611078029342
1346 1 6.681097067989963 -5.172355176200683 -2.806701582909356
1347 1 5.544293740257322 -2.993722593886274 -1.514723930018626
1348 1 8.367235797381683 -2.899400282636336 -1.51470339978789
1349 1 7.14072467075002 -0.7317143730347881 -0.2231023057613409
1350 1 9.949041033048955 -0.6370766163275448 -0.2229661966165445
1351 1 11.3464602316859 1.570128703475041 1.068047116711032
1352 1 13.90122799901612 1.744338546157669 1.067805317563005
1353 1 12.77683890090772 3.980819764516187 2.360097457964611
1354 1 15.37921164142458 4.154495055486747 2.360590412596208
1355 1 14.42686815013089 6.30462643542974 3.652626488734389
1356 1 17.11241132973676 6.305526625876617 3.652726875325155
1357 1 7.420185461873254 -2.935420361848695 -4.0990754913295
1358 1 10.28533752459365 -2.80412288537193 -4.099182276710434
1359 1 9.004538946768852 -0.6744253275865576 -2.807401979974634
1360 1 11.90485577927684 -0.515875859272818 -2.807171158304939
1361 1 13.07765326132766 1.664125149583632 -1.51651332195972
1362 1 15.45008656849714 2.043924974887833 -1.515877810145655
1363 1 14.50199071066243 4.116147388873133 -0.2238674868888252
1364 1 17.13105476640455 4.099966028389257 -0.2236236378346038
1365 1 16.21883289166668 6.322681001404687 1.06830487844207
1366 1 18.88593803458737 6.241017058412757 1.068574840414604
1367 1 17.97651548472096 8.491015504865201 2.360464505401811
1368 1 20.66221780346011 8.421944211109668 2.360732639034221
1369 1 19.75018267994296 10.67415631246445 3.652652491759409
1370 1 22.44933967502241 10.61996726991037 3.652885512200693
1371 1 14.67730274936582 1.878478898423301 -4.100740730193055
1372 1 17.01288556564364 1.816695413958861 -4.09957282717976
1373 1 16.25975439484355 4.14668559203931 -2.808128925063713
1374 1 18.84977189033422 3.980441314831029 -2.807600799500437
1375 1 18.00135625150504 6.276276329922168 -1.515928549100501
1376 1 20.64902913826069 6.170310239261132 -1.515544198826335
1377 1 19.76902606997802 8.446955137178286 -0.2237431886814779
1378 1 22.4460906202724 8.373324783312114 -0.223453015652109
1379 1 21.55070889420664 10.63863855965825 1.068429635885444
1380 1 24.24516894293333 10.58381078638334 1.068661219318566
1381 1 23.34126813353777 12.84185295998792 2.360601244978552
1382 1 26.04703033567272 12.79914363763188 2.360792933005754
1383 1 25.13809059454 15.05223551431812 3.652775869150685
1384 1 27.85165591894438 15.0179190253284 3.652938274110132
1385 1 19.76783929028005 6.204688083364666 -4.100039864516612
1386 1 22.414981133544 6.111960307818655 -4.099752773839091
1387 1 21.55432823622233 8.397083934023499 -2.807918263025272
1388 1 24.23082377360509 8.330911192800333 -2.807686321869701
1389 1 23.34737718111498 10.60155448504769 -1.515786238378154
1390 1 26.04113461862487 10.55123396688299 -1.515592248997885
1391 1 25.14537577191791 12.81302160317587 -0.2236425109428909
1392 1 27.85037326924755 12.77319949959968 -0.223476592914215
1393 1 26.94734920625042 15.02911330163088 1.068511692465229
1394 1 29.66014387488805 14.99672263683171 1.06865568976887
1395 1 28.75259583483029 17.24852847226433 2.360674607464574
1396 1 25.1430101220211 10.56699159111053 -4.100023803507292
1397 1 27.83887655382525 10.52305577999984 -4.099878930152394
1398 1 26.94864982634621 12.78583997303052 -2.807901534067888
1399 1 29.65454997535398 12.7500618298382 -2.807768649908716
1400 1 28.75589094347066 15.00710182339016 -1.515763554124689
1401 1 -24.7264441095867 -30.224701769259 3.653736187111695
1402 1 -21.98246206919509 -30.2245723709024 3.653744153232677
1403 1 -22.89738391318145 -30.22520588962911 1.069369169579321
1404 1 -20.15189172289577 -30.22131441978781 1.069361404317874
1405 1 -21.08381816514976 -28.00038110535342 2.361580750701199
1406 1 -18.33757528069948 -27.99369421001428 2.361566849582448
1407 1 -19.27209881148766 -25.77615362522651 3.65379039789417
1408 1 -16.52511732484233 -25.76533387799101 3.653770560151237
1409 1 -21.0672929537998 -30.22328889157867 -1.515008421252054
1410 1 -18.32047179747918 -30.21514937232162 -1.515030833465068
1411 1 -19.25323873433769 -27.9967773416969 -0.2228008679594359
1412 1 -16.5056460305803 -27.98478183236098 -0.2228290926094917
1413 1 -17.44102039005761 -25.77001618464718 1.06940456405818
1414 1 -14.69279752922489 -25.75259917131618 1.069372896677188
1415 1 -15.63121380009231 -23.54199274582716 2.361608242921273
1416 1 -12.88279627246394 -23.51705613518748 2.361579532825692
1417 1 -13.82482670410096 -21.31093666384168 3.653813538539913
1418 1 -11.07717268303562 -21.27587779975301 3.653800635475312
1419 1 -19.2362772261725 -30.21861194578062 -4.099396089874413
1420 1 -16.48839287997708 -30.20584497004005 -4.099430753525065
1421 1 -17.42170008284852 -27.98970526137558 -2.807192630165803
1422 1 -14.67314722548247 -27.97206344850862 -2.807231111623199
1423 1 -15.60902769762593 -25.7595333856271 -1.514990124585795
1424 1 -12.86010624721559 -25.73533674290794 -1.515027582179212
1425 1 -13.79901898461364 -23.52670824534763 -0.2227856818327433
1426 1 -11.05038036440737 -23.4939005344188 -0.2228127316383125
1427 1 -11.9930236477137 -21.28906961452459 1.069428419008929
1428 1 -9.245831742052092 -21.24543797756455 1.069426374269518
1429 1 -10.19345044969334 -19.0435468226726 2.361667886416664
1430 1 -7.449412574204239 -18.98733976973136 2.361707218763585
1431 1 -8.404385731943131 -16.78644841472006 3.653956417930866
1432 1 -5.665310279962804 -16.71750870598976 3.654043446491815
1433 1 -13.77647443918964 -25.74452953706074 -4.099389715185498
1434 1 -11.02741889756978 -25.71369803490204 -4.099427017738161
1435 1 -11.96656600791172 -23.50610314401538 -2.807179593421447
1436 1 -9.218322180112493 -23.4660254569619 -2.807199606646174
1437 1 -10.16142838172825 -21.26129763450542 -1.514950034732161
1438 1 -7.415187948266945 -21.21036738392551 -1.514939969161958
1439 1 -8.363888230209907 -19.00726216396403 -0.222683058944572
1440 1 -5.621012166416825 -18.94477232436284 -0.2226347912279957
1441 1 -6.578217256843233 -16.74130495296681 1.069639777206717
1442 1 -3.839498918144045 -16.66833149178219 1.069717798806583
1443 1 -4.809847942675918 -14.46237540676986 2.362018739586333
1444 1 -2.074203236492123 -14.38224737647375 2.362093628622814
1445 1 -3.063828619259432 -12.17288322335629 3.654411145031387
1446 1 -0.3271174133383051 -12.09034499752537 3.654439565074607
1447 1 -8.330412161042396 -21.22841893626854 -4.099320124224541
1448 1 -5.585351461591645 -21.1716848080791 -4.099301334227366
1449 1 -6.535128370223417 -18.96645635549231 -2.807026329446162
1450 1 -3.793160644900275 -18.89958655992968 -2.806980019998758
1451 1 -4.752427799492737 -16.69313556490125 -1.51468007479368
1452 1 -2.013254655023029 -16.6178928740226 -1.51462603774441
1453 1 -2.986555377032325 -14.4090458305395 -0.222298651325031
1454 1 -0.247777181112024 -14.32857687745028 -0.2222723976463495
1455 1 -1.240456010495693 -12.11777748563587 1.070065386922116
1456 1 1.502920430299761 -12.03537407461364 1.070032450210171
1457 1 0.485645014233375 -9.825366838292176 2.362343565956882
1458 1 3.24048087963131 -9.74269797938587 2.362249381037878
1459 1 2.193598126031159 -7.538133936492177 3.654493188406254
1460 1 4.967014919897948 -7.454228739325849 3.654371595101312
1461 1 -2.926459113419178 -16.64321741817456 -4.099013870138097
1462 1 -0.1862093669387919 -16.56693299653836 -4.098993585716364
1463 1 -1.161289215683236 -14.35541758423631 -2.806647491594517
1464 1 1.581050003170708 -14.27491596807343 -2.80667305526193
1465 1 0.5873488636043385 -12.06290042556924 -1.514321422130358
1466 1 3.337118789093219 -11.97986961584426 -1.514413653115099
1467 1 2.320569532605671 -9.770722291521226 -0.2220842217700106
1468 1 5.084574653200137 -9.684680290020017 -0.2222392259257521
1469 1 4.040312935334478 -7.483474123089335 1.070047545504935
1470 1 6.826355755004455 -7.390860560336407 1.069855234193386
1471 1 5.745120332548966 -5.204314761654893 2.362090876744799
1472 1 8.563102890241566 -5.097944614614443 2.361900483212886
1473 1 7.420185461873254 -2.935420361848695 3.6540494425275
1474 1 10.28533752459365 -2.80412288537193 3.653942657146565
1475 1 2.419540873980643 -12.00770845796575 -4.098748404419812
1476 1 5.174601720344609 -11.92373208346284 -4.098893728074859
1477 1 4.161874068997536 -9.714039771931338 -2.806552250202653
1478 1 6.932892694023534 -9.623993393635949 -2.806765984295459
1479 1 5.895778463695715 -7.423404138539834 -1.514442014502821
1480 1 8.691209823762842 -7.320896053996174 -1.514716280311592
1481 1 7.62050255255652 -5.137061786390011 -0.2223882425561682
1482 1 10.45456029078559 -5.008239137104068 -0.2227284250649407
1483 1 9.321986779271672 -2.85644333533138 1.069643084600473
1484 1 12.23155420233199 -2.665459944712948 1.069197086640615
1485 1 10.91049696920472 -0.5882377856327471 2.361490883829534
1486 1 14.07643166760963 -0.1631955001958523 2.360890896576527
1487 1 14.67730274936582 1.878478898423301 3.652384203663945
1488 1 17.01288556564364 1.816695413958861 3.65355210667724
1489 1 7.758355490826654 -7.356605236699087 -4.098986766889243
1490 1 10.55635439648347 -7.248238258748499 -4.099313449274248
1491 1 9.508226354296184 -5.054817593071808 -2.806963805974362
1492 1 12.34241987046719 -4.914938390933924 -2.807385511217237
1493 1 11.25666151098326 -2.740173623890256 -1.514955097123588
1494 1 14.15588664092449 -2.54656670267978 -1.515485738615258
1495 1 12.96514327791889 -0.3847480062585886 -0.2228748003794726
1496 1 16.25320139717849 -0.4475063848028316 -0.2242344644722768
1497 1 16.25218913486495 1.975282795746783 1.06872623436654
1498 1 18.65494131298672 1.665759175987598 1.069190808678021
1499 1 17.99190188966879 4.038605706866933 2.360961470308914
1500 1 20.57903207907964 3.892571983691831 2.361333234772909
1501 1 19.76783929028005 6.204688083364666 3.653085069340388
1502 1 22.414981133544 6.111960307818655 3.653372160017908
1503 1 13.20045772922519 -2.591460618118389 -4.099771333131033
1504 1 16.06962413398933 -2.612247505010111 -4.100083890335102
1505 1 15.15140317221492 -0.270021238859784 -2.808279609181083
1506 1 18.25073559948166 -0.5839196660940644 -2.808384547735878
1507 1 17.81333868050218 1.722068051400432 -1.515127345790868
1508 1 20.40220143629985 1.600585662405815 -1.51531554329773
1509 1 19.71119801665947 3.931727003310204 -0.2231040931456224
1510 1 22.33447483579742 3.83595878459966 -0.2230207123153906
1511 1 21.53107911606006 6.139278782944364 1.068926898350102
1512 1 24.18998321350841 6.067583141742888 1.069074429551052
1513 1 23.33810848862045 8.351192496547013 2.360999674075541
1514 1 26.01938426403846 8.295914500907463 2.361153126697135
1515 1 25.1430101220211 10.56699159111053 3.653101130349708
1516 1 27.83887655382525 10.52305577999984 3.653246003704606
1517 1 19.52129019781011 1.628115356317423 -4.09962962379645
1518 1 22.18787044524476 1.561839202106711 -4.09977890056144
1519 1 21.45367459395971 3.861256349564014 -2.80739438543452
1520 1 24.11081257979237 3.797907403873009 -2.807430190388299
1521 1 23.30123104317684 6.088190014520936 -1.515330156233056
1522 1 25.97468546944626 6.034123421154511 -1.51527824152216
1523 1 25.12452679015067 8.31251203297766 -0.2232606530200697
1524 1 27.81279699097956 8.267552485934186 -0.2231729541377067
1525 1 26.9397164286455 10.53659028479846 1.068830880922466
1526 1 29.63920570289744 10.49912965135604 1.068930205733029
1527 1 28.75231164675668 12.7612684929477 2.360942647400479
1528 1 25.08118739022124 6.049700246509998 -4.099659472464886
1529 1 27.76773106191204 6.008474334890442 -4.099659163703651
1530 1 26.91547082434801 8.280981266450029 -2.80756818302314
1531 1 29.61101694541476 8.244567089644377 -2.807526361203722
1532 1 28.73869212597256 10.51058954030931 -1.515471118588907
1533 1 -19.2362772261725 -30.21861194578062 3.653728843982586
1534 1 -16.48839287997708 -30.20584497004005 3.653694180331934
1535 1 -17.4045009350811 -30.21090034220719 1.069332491882897
1536 1 -14.65588874627067 -30.19327150486679 1.069289040217599
1537 1 -15.58944904061966 -27.97890443962912 2.3615329189156
1538 1 -12.84038712372921 -27.95550351978497 2.361489071500249
1539 1 -13.77647443918964 -25.74452953706074 3.653735218671502
1540 1 -11.02741889756978 -25.71369803490204 3.653697916118839
1541 1 -15.57217810668034 -30.19997044852204 -1.515070375420739
1542 1 -12.82321933079852 -30.17741849309784 -1.515118523024967
1543 1 -13.75677999311672 -27.9642594769613 -0.2228708891454944
1544 1 -11.00768013655607 -27.93523033346044 -0.2229151903134069
1545 1 -11.94373962748051 -25.72504666564793 1.069334828059035
1546 1 -9.195074795788322 -25.68803731854885 1.069302378790865
1547 1 -10.13428582408056 -23.4805148455068 2.361555513227229
1548 1 -7.386910847357207 -23.43410144710556 2.361544781082834
1549 1 -8.330412161042396 -21.22841893626854 3.65380480963246
1550 1 -5.585351461591645 -21.1716848080791 3.653823599629634
1551 1 -13.73955796582253 -30.18575069016294 -4.099477083151757
1552 1 -10.99065102228925 -30.15840106163787 -4.099525747660701
1553 1 -11.92400787156794 -27.94581679525187 -2.80727576961749
1554 1 -9.175319861695822 -27.91152738703452 -2.807316347512338
1555 1 -10.11118501015412 -25.70134131444308 -1.515062932591217
1556 1 -7.36334948881319 -25.65887317471623 -1.515087790128045
1557 1 -8.30252204450737 -23.45052194757312 -0.2228281784920848
1558 1 -5.556324037210495 -23.39892119632844 -0.2228304693511581
1559 1 -6.500167574552412 -21.19141296321568 1.069441454092399
1560 1 -3.756306272095658 -21.13040764084618 1.069462781500525
1561 1 -4.707033849701094 -18.92243688181118 2.361755928308499
1562 1 -1.965606629008458 -18.85282532979689 2.361789701046187
1563 1 -2.926459113419178 -16.64321741817456 3.654111063718903
1564 1 -0.1862093669387919 -16.56693299653836 3.654131348140635
1565 1 -8.279120481901108 -25.67385566573951 -4.099455879983644
1566 1 -5.532443636144703 -25.62683969278084 -4.09947245625365
1567 1 -6.471507271792031 -23.41686615906284 -2.807205850041318
1568 1 -3.7266459271236 -23.36132718916916 -2.80720266173818
1569 1 -4.670734097998944 -21.15130911970257 -1.514919054083853
1570 1 -1.927976635916809 -21.08748880594712 -1.514901828935536
1571 1 -2.879360781425309 -18.87634522595514 -0.2225935698139806
1572 1 -0.1381598117505901 -18.8053565447096 -0.2225798491616172
1573 1 -1.099845875202882 -16.59244078215822 1.069755800063498
1574 1 1.641752780752959 -16.51601835423196 1.069738791304205
1575 1 0.666341947046831 -14.30173819316929 2.362093976807767
1576 1 3.412027055462024 -14.22144016732647 2.362019608797603
1577 1 2.419540873980643 -12.00770845796575 3.654376529437188
1578 1 5.174601720344609 -11.92373208346284 3.654231205782141
1579 1 -2.842057234465406 -21.10909699591866 -4.099281287358441
1580 1 -0.1002905016665919 -21.04380630216219 -4.099273200056532
1581 1 -1.051877179932325 -18.82913011831058 -2.806955597765351
1582 1 1.68924192429096 -18.75795093182143 -2.806964875769337
1583 1 0.7276608000983786 -16.54143626275126 -1.514624355867256
1584 1 3.470470462440938 -16.46573160490032 -1.51467586264923
1585 1 2.496301966990873 -14.24813513505402 -0.2223231249614882
1586 1 5.244498539148535 -14.16863719388019 -0.2224368398062676
1587 1 4.25552683558378 -11.95185983898541 1.069912509354357
1588 1 7.013936013150653 -11.867683413343 1.069728307583044
1589 1 6.008347996210706 -9.654626625110092 2.362064053100717
1590 1 8.782774608006799 -9.562226991196333 2.361810068236612
1591 1 7.758355490826654 -7.356605236699087 3.654138166967758
1592 1 10.55635439648347 -7.248238258748499 3.653811484582751
1593 1 2.55603755491233 -16.4907541740737 -4.099028582698665
1594 1 5.299540214472159 -16.41685883586799 -4.099105729129472
1595 1 4.328130801293586 -14.19490409345127 -2.806768714941555
1596 1 7.077500999520158 -14.11758310118386 -2.806905158098764
1597 1 6.09414638419006 -11.89560584283319 -1.514580880703433
1598 1 8.853288545791081 -11.81375417086816 -1.514777735969837
1599 1 7.857841304121576 -9.593042757947094 -0.2224769576636433
1600 1 10.63089136140322 -9.503945751568372 -0.2227256564718575
1601 1 9.624168579573293 -7.284379209086765 1.069546840593628
1602 1 12.41528182691869 -7.184927584055816 1.069266356137862
1603 1 11.40007960762871 -4.960210714128248 2.36149647220353
1604 1 14.21347197520398 -4.859202217367667 2.361245555414648
1605 1 13.20045772922519 -2.591460618118389 3.653353600725967
1606 1 16.06962413398933 -2.612247505010111 3.653041043521898
1607 1 7.933729614702242 -11.8402643107989 -4.099088333926424
1608 1 10.69091925643035 -11.76558821800598 -4.099261667417712
1609 1 9.707256159752204 -9.532223552057758 -2.807024711019355
1610 1 12.47473942293321 -9.457120109259591 -2.807207553499398
1611 1 11.48691521287746 -7.214291474451496 -1.51503558318593
1612 1 14.26619747534137 -7.150019867179324 -1.515177458242969
1613 1 13.27999328104968 -4.87891577789014 -0.2230948722457672
1614 1 16.08195200797542 -4.87956924540105 -0.2232188740011686
1615 1 15.10694780872638 -2.556903558279884 1.068844797075412
1616 1 18.01849428288039 -2.741927099680654 1.068248485641682
1617 1 17.27544341030681 -0.5339155382188022 2.360240485584889
1618 1 20.14234249871112 -0.6431010079192007 2.360534906408675
1619 1 19.52129019781011 1.628115356317423 3.653495310060549
1620 1 22.18787044524476 1.561839202106711 3.65334603329556
1621 1 13.34146083837196 -7.162764315152786 -4.099528443861146
1622 1 16.11685185121885 -7.155720109261813 -4.099609876806291
1623 1 15.14613228438088 -4.859913776178066 -2.807529115838745
1624 1 17.96868144365515 -4.950289087173322 -2.807860652730792
1625 1 17.04357039791358 -2.680608549386984 -1.515949539801118
1626 1 19.94784176946542 -2.829838960131314 -1.516242771742375
1627 1 19.20279921119807 -0.6178289748379387 -0.2239125224358637
1628 1 22.00198299571788 -0.6794507931421411 -0.2237424218940777
1629 1 21.29210699927776 1.579186130332999 1.069010296191607
1630 1 23.99022498148756 1.534978380000015 1.068913916740815
1631 1 23.22049236420598 3.815207966388912 2.361340157323064
1632 1 25.90135466880147 3.770680085252995 2.361273435660638
1633 1 25.08118739022124 6.049700246509998 3.653465461392114
1634 1 27.76773106191204 6.008474334890442 3.653465770153349
1635 1 18.98730747585186 -2.791237933359728 -4.100590834845725
1636 1 21.84636589416061 -2.884564685024176 -4.100583254363155
1637 1 21.07450244953007 -0.6630639861044441 -2.808160101979576
1638 1 23.84846960569531 -0.7051592217317155 -2.808055827183144
1639 1 23.087630392682 1.547350590721772 -1.515435451067099
1640 1 25.80113047091182 1.514773759770556 -1.515499615927837
1641 1 25.00464831242033 3.783258580366778 -0.2230781456144809
1642 1 27.70141305964594 3.750133085291191 -0.2231458386629109
1643 1 26.87027232949968 6.020485139540039 1.069096111355198
1644 1 29.56744097556775 5.988347643248246 1.069071986427
1645 1 28.71133135127659 8.255465801804752 2.361215496664969
1646 1 24.89489620316033 1.524232637698796 -4.099857090483787
1647 1 27.61695149415677 1.498800238676612 -4.099901780699302
1648 1 26.80041389915907 3.759744466645031 -2.807499270002025
1649 1 29.50797890792195 3.733974115250091 -2.807559506480643
1650 1 28.66685183787445 5.997832709825432 -1.515292607590777
1651 1 -13.73955796582253 -30.18575069016294 3.653647850705243
1652 1 -10.99065102228925 -30.15840106163787 3.653599186196298
1653 1 -11.9069061776444 -30.16829327867538 1.069240127699256
1654 1 -9.158437542502561 -30.13645556022171 1.069194696641167
1655 1 -10.09143974410841 -27.92378434083765 2.361446179532014
1656 1 -7.343558586676565 -27.88481100096781 2.361412262208085
1657 1 -8.279120481901108 -25.67385566573951 3.653669053873355
1658 1 -5.532443636144703 -25.62683969278084 3.65365247760335
1659 1 -10.07448502693653 -30.14777513244822 -1.515165996016947
1660 1 -7.326804322045477 -30.11192604510549 -1.515205241493662
1661 1 -8.259350569086934 -27.89851546791355 -0.222952717673795
1662 1 -5.512596043156011 -27.85560012908152 -0.2229784157456328
1663 1 -6.447784481350672 -25.64317230034383 1.069281690332115
1664 1 -3.702487380013346 -25.59263955228365 1.069272517197648
1665 1 -4.641368924182378 -23.38037282793402 2.361545679031975
1666 1 -1.897900262912187 -23.32216350841173 2.36155068105451
1667 1 -2.842057234465406 -21.10909699591866 3.653843646498559
1668 1 -0.1002905016665919 -21.04380630216219 3.653851733800468
1669 1 -8.242535738064989 -30.12448860141489 -4.099568396364871
1670 1 -5.495938135322658 -30.08524482811107 -4.099599455255798
1671 1 -6.42796715439157 -27.87048180742901 -2.807346268717378
1672 1 -3.682577305267765 -27.82448502840714 -2.807363354199942
1673 1 -4.617341071598632 -25.60996494268032 -1.51510048714497
1674 1 -1.873554766661667 -25.5570079322726 -1.515103884441165
1675 1 -2.812156423980495 -23.3418894636905 -0.2228259293253435
1676 1 -0.07008499564379617 -23.28225604994633 -0.2228221032708447
1677 1 -1.014056122309732 -21.06569044773948 1.069475905051459
1678 1 1.726777421137325 -21.00019275468471 1.069472753693434
1679 1 0.7755486992344556 -18.78159861540465 2.36179197676859
1680 1 3.516512344854714 -18.71138842562304 2.361761777458121
1681 1 2.55603755491233 -16.4907541740737 3.654096351158334
1682 1 5.299540214472159 -16.41685883586799 3.654019204727527
1683 1 -2.78789019955353 -25.57495614856409 -4.099478526265869
1684 1 -0.04568084853798188 -25.52069085794144 -4.09947766557368
1685 1 -0.9838766818884086 -23.30225186138581 -2.807197960714772
1686 1 1.756802903595227 -23.24241614206777 -2.807196651045577
1687 1 0.8133215710922899 -21.0219393233523 -1.514899310478129
1688 1 3.553192233337445 -20.95748518120485 -1.514912391476954
1689 1 2.602904290207093 -18.73451219333085 -0.2226001551092124
1690 1 5.343445066102645 -18.66656199247138 -0.2226445986933258
1691 1 4.384993749218779 -16.44105683903105 1.069673002117434
1692 1 7.128416610676437 -16.37053967106218 1.069584190168131
1693 1 6.161000790940868 -14.14279478268088 2.361892000891709
1694 1 8.909977965382167 -14.07014252308368 2.361755727212904
1695 1 7.933729614702242 -11.8402643107989 3.654036599930576
1696 1 10.69091925643035 -11.76558821800598 3.653863266439288
1697 1 2.640070699496017 -20.97867181527924 -4.099281687967885
1698 1 5.378877564398979 -20.91657289420892 -4.099300362013747
1699 1 4.430036764919599 -18.68869568741418 -2.807003278192061
1700 1 7.169788024097851 -18.6245474172289 -2.807052064234592
1701 1 6.214038017608194 -16.3932924492322 -1.514760835168252
1702 1 8.956582136807132 -16.32832809114718 -1.514844746694305
1703 1 7.993865847442214 -14.09326196469053 -0.2225763143046567
1704 1 10.74113961255831 -14.02894965175227 -0.2226885313651478
1705 1 9.772402240032513 -11.78866313836453 1.069538488701232
1706 1 12.52603542403109 -11.72806017889714 1.069419427921959
1707 1 11.55340765969884 -9.478507084949189 2.36158744533384
1708 1 14.31491698974511 -9.430795021606814 2.361493731691945
1709 1 13.34146083837196 -7.162764315152786 3.653596489995853
1710 1 16.11685185121885 -7.155720109261813 3.65351505705071
1711 1 8.042613602257934 -16.34880838797519 -4.099194162843822
1712 1 10.78376638163594 -16.29209673718828 -4.099258808354925
1713 1 9.825750175820298 -14.04857848961706 -2.807032084949959
1714 1 12.57088446331466 -13.99699479824695 -2.807105897361612
1715 1 11.60877885083203 -11.7451752773469 -1.514926451474096
1716 1 14.35956081137648 -11.70577068302412 -1.51499083143606
1717 1 13.39508722292475 -9.440927650480827 -0.2228619442746788
1718 1 16.15567050115349 -9.429753332295773 -0.2229253979952303
1719 1 15.19083352839753 -7.14780650254856 1.069176831571639
1720 1 17.97668087573208 -7.194062653506524 1.068985516991242
1721 1 17.0230049346393 -4.912080179132084 2.361037356536384
1722 1 19.86519474269627 -5.024395181064309 2.360627626067161
1723 1 18.98730747585186 -2.791237933359728 3.652534099011274
1724 1 21.84636589416061 -2.884564685024176 3.652541679493845
1725 1 13.44286698457402 -11.71479479149303 -4.099350756428541
1726 1 16.19398483347942 -11.70087502864154 -4.099400263030178
1727 1 15.23488020609717 -9.427123422154944 -2.807274276669638
1728 1 18.00181063193983 -9.450791053632992 -2.807399471566137
1729 1 17.04534083264426 -7.171985561442415 -1.515298993472445
1730 1 19.84628113993833 -7.245699181666544 -1.515606664068585
1731 1 18.91683320535181 -4.988744383683909 -0.2236293620682784
1732 1 21.7566443865417 -5.083515954663513 -0.223889092854879
1733 1 20.90046674625134 -2.860227793699029 1.068140692929439
1734 1 23.72283686530452 -2.920996831873392 1.068235500608155
1735 1 22.92632601054973 -0.6932701652271956 2.360666531463703
1736 1 25.68836544731647 -0.7247309311574179 2.360736103802459
1737 1 24.89489620316033 1.524232637698796 3.653267843373213
1738 1 27.61695149415677 1.498800238676612 3.653223153157698
1739 1 18.91057084878025 -7.219353819507154 -4.099871252020574
1740 1 21.71976287744389 -7.296022547104066 -4.100174778439839
1741 1 20.8121117361543 -5.056034354538532 -2.80820808484837
1742 1 23.63733914391999 -5.127541918526249 -2.808310667567654
1743 1 22.78679376620061 -2.904444827273919 -1.516174887044286
1744 1 25.5850867676813 -2.947068904818645 -1.51607191793824
1745 1 24.76901525034787 -0.7155457684179343 -0.2236580307162489
1746 1 27.52451611475571 -0.740322696400513 -0.2236085634730299
1747 1 26.7085684052587 1.50635699039119 1.068860653808421
1748 1 29.4358386203122 1.485740987391688 1.068828286087305
1749 1 28.60402269111009 3.74160476084222 2.361209038094621
1750 1 24.65537170087416 -2.935015979651026 -4.100479714048357
1751 1 27.43808619415801 -2.966811065413512 -4.100388646698118
1752 1 26.606799280899 -0.7329347025940252 -2.807997558142195
1753 1 29.3583463772627 -0.7531353610004505 -2.80796069364265
1754 1 28.52608930381901 1.491964430923086 -1.51553748167766
1755 1 -8.242535738064989 -30.12448860141489 3.653556537492128
1756 1 -5.495938135322658 -30.08524482811107 3.653525478601202
1757 1 -6.411265353420241 -30.09882452530315 1.069159353508469
1758 1 -3.665982220015642 -30.05691079444276 1.069137595177335
1759 1 -4.597461672844804 -27.84024171832264 2.361390878304039
1760 1 -1.85359724852663 -27.79210007360636 2.36138207757033
1761 1 -2.78789019955353 -25.57495614856409 3.653646407591131
1762 1 -0.04568084853798188 -25.52069085794144 3.653647268283319
1763 1 -4.580839178674762 -30.0712512170979 -1.515231741256556
1764 1 -1.83703571595277 -30.02746861455365 -1.51524375446368
1765 1 -2.767953278409404 -27.80841051824047 -0.2229912929335481
1766 1 -0.02570766551703746 -27.75910331435655 -0.2229923570205502
1767 1 -0.9594843964792716 -25.53888833718867 1.069271402821756
1768 1 1.781125364291799 -25.48443624077072 1.06927575369241
1769 1 0.8434749958591945 -23.26227710053912 2.361553291089128
1770 1 3.582759508016046 -23.20345660253023 2.361552767569521
1771 1 2.640070699496017 -20.97867181527924 3.653843245889115
1772 1 5.378877564398979 -20.91657289420892 3.653824571843253
1773 1 -2.751378275906562 -30.04229290885889 -4.099616365457086
1774 1 -0.009155429549307759 -29.99749063234242 -4.099618587463659
1775 1 -0.9395144097164032 -27.77563653523705 -2.807368221840924
1776 1 1.801076826412753 -27.72616240740025 -2.807361927149831
1777 1 0.8678554532333729 -25.50250899287894 -1.51510124477453
1778 1 3.606876664838106 -25.44899191274492 -1.515093163594056
1779 1 2.669897956737338 -23.22277499040282 -0.2228219186872801
1780 1 5.407784970989741 -23.16620663080409 -0.2228218491321902
1781 1 4.466131343392377 -20.93674608864078 1.069456182852355
1782 1 7.203762892758876 -20.87842163251143 1.069438068241584
1783 1 6.256704933202895 -18.64512817298455 2.361713807388343
1784 1 8.99535461083485 -18.586605842621 2.361671303553885
1785 1 8.042613602257934 -16.34880838797519 3.653930771013179
1786 1 10.78376638163594 -16.29209673718828 3.653866125502075
1787 1 2.694131131575754 -25.46656608664318 -4.09947154052052
1788 1 5.431613532422186 -25.41510299863211 -4.099458663583142
1789 1 4.495387804449617 -23.18456529473537 -2.80719726198167
1790 1 7.231910602698107 -23.13151216479896 -2.807193312796553
1791 1 6.291422673021444 -20.89708894407368 -1.514931599834872
1792 1 9.027848904685111 -20.84405489693383 -1.51494311357033
1793 1 8.082674020613513 -18.60498325405201 -0.222691488429921
1794 1 10.82014657031245 -18.55409111938794 -0.2227198349662308
1795 1 9.870298118974022 -16.30934216508075 1.06950849583758
1796 1 12.61014515644365 -16.26373923467351 1.069469081781051
1797 1 11.65615930807451 -14.01163754322314 2.361661997352846
1798 1 14.40004472878394 -13.97678441833632 2.361620731838165
1799 1 13.44286698457402 -11.71479479149303 3.65377417742846
1800 1 16.19398483347942 -11.70087502864154 3.653724670826821
1801 1 8.115901109927476 -20.86070057642879 -4.099315835462569
1802 1 10.85127220166078 -20.81448179423458 -4.09931709727609
1803 1 9.907837008614619 -18.56958656608344 -2.807088155302651
1804 1 12.64444536595892 -18.52825758152865 -2.8071006994872
1805 1 11.69702476803929 -16.27682658822669 -1.514896774223667
1806 1 14.4364095380489 -16.24471218148264 -1.514917777682691
1807 1 13.48545094067847 -13.98531162288005 -0.2227438675633903
1808 1 16.23018997922445 -13.96938534997097 -0.2227792501584801
1809 1 15.27647530005527 -11.70115788840149 1.06936934137814
1810 1 18.03202396310133 -11.71181362174009 1.069281163879765
1811 1 17.07786543786605 -9.437997735894713 2.361408655680505
1812 1 19.85500901547099 -9.485091064131307 2.361193196144386
1813 1 18.91057084878025 -7.219353819507154 3.653253681836426
1814 1 21.71976287744389 -7.296022547104066 3.652950155417162
1815 1 13.52323075595969 -16.25299886603062 -4.099287333742263
1816 1 16.26362089046811 -16.2355833926894 -4.099308115789872
1817 1 15.31488306042583 -13.97149217626931 -2.807140004613879
1818 1 18.06298934623958 -13.97392319429766 -2.807202622139115
1819 1 17.11242087518326 -11.70459933770788 -1.515053899794286
1820 1 19.87510300550158 -11.73410169754503 -1.515206766170561
1821 1 18.9275800190735 -9.466894780096327 -0.2230979574794368
1822 1 21.7134630234034 -9.523738327216916 -0.2233568013301824
1823 1 20.78294428169171 -7.271567422708312 1.068664962175876
1824 1 23.59154863367052 -7.339102015400035 1.068444377038506
1825 1 22.69840187234669 -5.107182697629407 2.360453761838976
1826 1 25.50741373655755 -5.160351760488512 2.360443450639194
1827 1 24.65537170087416 -2.935015979651026 3.652645219808643
1828 1 27.43808619415801 -2.966811065413512 3.652736287158882
1829 1 18.95291704712761 -11.72187699332797 -4.09952026707208
1830 1 21.72288024007935 -11.76243462683927 -4.099723060287882
1831 1 20.78377104160355 -9.50431852012243 -2.807644907968112
1832 1 23.57404190219865 -9.560931920696918 -2.80788603993344
1833 1 22.65610985396681 -7.318588890682723 -1.515873326918688
1834 1 25.45875758617132 -7.374167104179534 -1.51600314800891
1835 1 24.57359964637941 -5.145110360952046 -0.2239377785200859
1836 1 27.36873225890434 -5.185357395326465 -0.2239049244788326
1837 1 26.51251868995317 -2.957566214368774 1.068333453821127
1838 1 29.28487320261609 -2.982402097653434 1.068409803118766
1839 1 28.44166201968685 -0.747022699409312 2.360778591560359
1840 1 24.52581061427638 -7.357586088691389 -4.100348127651797
1841 1 27.32058699688482 -7.402321676298368 -4.100409434838538
1842 1 26.439039684539 -5.173659301618103 -2.80829486056577
1843 1 29.22323770594269 -5.204932953304226 -2.808245336938165
1844 1 28.36211780066669 -2.975031493313281 -1.51598827413939
1845 1 -2.751378275906562 -30.04229290885889 3.653508568399914
1846 1 -0.009155429549307759 -29.99749063234242 3.65350634639334
1847 1 -0.9229603377555879 -30.01251017908129 1.069130486868148
1848 1 1.817642161970855 -29.96756161798552 1.06913792522747
1849 1 0.8878222662305857 -27.74258406875416 2.361384719930839
1850 1 3.626776786588833 -27.693944182671 2.361398329041302
1851 1 2.694131131575754 -25.46656608664318 3.653653393336479
1852 1 5.431613532422186 -25.41510299863211 3.653666270273858
1853 1 0.9043781901066017 -29.98248334455081 -1.515241124447334
1854 1 3.643380173068717 -29.93826523264039 -1.515224236780085
1855 1 2.7140596683508 -27.7099215892904 -0.2229824193284659
1856 1 5.451450716752084 -27.66310386229965 -0.2229613149266897
1857 1 4.519367944704401 -25.43180677552846 1.069286066657071
1858 1 7.255418170921022 -25.38350114940622 1.069305054109834
1859 1 6.319956135131072 -23.14848690434494 2.361554360369366
1860 1 9.055234133039024 -23.10021148662478 2.361565026173821
1861 1 8.115901109927476 -20.86070057642879 3.653809098394431
1862 1 10.85127220166078 -20.81448179423458 3.653807836580911
1863 1 2.730640606686077 -29.95279827594999 -4.099606392573325
1864 1 5.468122323620126 -29.91017032771995 -4.099580404965661
1865 1 4.539236706951923 -27.67831165404855 -2.807344595786872
1866 1 7.275201400808747 -27.63427006693203 -2.807315935714999
1867 1 6.343625135042231 -25.39897154511498 -1.515077380708443
1868 1 9.078431679275754 -25.35488046703693 -1.51505153789749
1869 1 8.143662980495703 -23.11538676980632 -0.2228148113926421
1870 1 10.87795119717232 -23.07308241069116 -0.2227964473376819
1871 1 9.939628183401625 -20.82860968143856 1.069431458865969
1872 1 12.67434471148452 -20.79057684191381 1.069439792052173
1873 1 11.73232808044803 -18.54027150610493 2.361651143728338
1874 1 14.46882262699153 -18.51000811284128 2.361648064756215
1875 1 13.52323075595969 -16.25299886603062 3.653837600114738
1876 1 16.26362089046811 -16.2355833926894 3.653816818067128
1877 1 8.167012274669768 -25.36877721002132 -4.09943627194053
1878 1 10.90086728789882 -25.32985920060896 -4.099404219123472
1879 1 9.966651860623188 -23.08608121011763 -2.807178756372902
1880 1 12.70036953641223 -23.05076707177803 -2.807154601704984
1881 1 11.76282579712097 -20.80177529935477 -1.514939180440238
1882 1 14.49754537400446 -20.77293871706825 -1.514926874071381
1883 1 13.55657906725363 -18.51814895192141 -0.2227263714227917
1884 1 16.29404334598913 -18.49966809311646 -0.222732792682398
1885 1 15.34982434710298 -16.23891816502759 1.069450917266143
1886 1 18.09288269019829 -16.23581152444196 1.069408838053374
1887 1 17.14617068703609 -13.97028953977522 2.361575450127664
1888 1 19.89951046554501 -13.98789024028989 2.361465629544066
1889 1 18.95291704712761 -11.72187699332797 3.653604666784919
1890 1 21.72288024007935 -11.76243462683927 3.653401873569118
1891 1 13.58589396780566 -20.78095138632221 -4.09930578859116
1892 1 16.32145620715706 -20.76177209726351 -4.099298901960891
1893 1 15.38127681588928 -18.50385564673608 -2.807103600580565
1894 1 18.12088591259182 -18.49688153612528 -2.807127976416223
1895 1 17.1779352545528 -16.23460363826534 -1.514946730238161
1896 1 19.92498629152936 -16.24388287965788 -1.515024812725483
1897 1 18.98075401448127 -13.97992566179357 -0.2228643470774504
1898 1 21.73989101671093 -14.00803930635192 -0.2230190720756214
1899 1 20.79848198695306 -11.74782040422187 1.0690995126063
1900 1 23.57385695741194 -11.79244466373755 1.068882366767111
1901 1 22.64367606716357 -9.542743305729578 2.360936881290176
1902 1 25.4340848215215 -9.59403394615355 2.360747367025575
1903 1 24.52581061427638 -7.357586088691389 3.652776806205202
1904 1 27.32058699688482 -7.402321676298368 3.652715499018462
1905 1 19.00854912579531 -16.23898901335858 -4.099367094263639
1906 1 21.76020566799813 -16.25772819043389 -4.099483287910251
1907 1 20.81924453558751 -13.99739674682667 -2.807336477903555
1908 1 23.58348247741018 -14.03129613368718 -2.807517415346894
1909 1 22.64808183820283 -11.77744192268785 -1.515421384923313
1910 1 25.42626063137194 -11.82133575831748 -1.515621125801652
1911 1 24.50425621199192 -9.578067188567026 -0.2235743337837787
1912 1 27.29196802259851 -9.622394063820005 -0.2237062405464082
1913 1 26.39034424016226 -7.389017209221726 1.068352098114366
1914 1 29.1772809428342 -7.425001010133588 1.068334858024141
1915 1 28.29672767805096 -5.195710423996917 2.36048688723019
1916 1 24.49998340005566 -11.80714561140002 -4.099934639031842
1917 1 27.27861320970327 -11.84769583241749 -4.100099616554314
1918 1 26.36335939932363 -9.608801492176168 -2.808046282322072
1919 1 29.1469561209676 -9.646301788949538 -2.808128956832574
1920 1 28.24954049630534 -7.41426080264407 -1.516039701144231
1921 1 2.730640606686077 -29.95279827594999 3.653518541283674
1922 1 5.468122323620126 -29.91017032771995 3.653544528891339
1923 1 4.555870106230953 -29.92403302957263 1.069159421448922
1924 1 7.291975030477067 -29.88381526964504 1.06919383065001
1925 1 6.363433107830154 -27.64839844155409 2.361423229343881
1926 1 9.098182862662588 -27.60802319637424 2.361458908588316
1927 1 8.167012274669768 -25.36877721002132 3.653688661916471
1928 1 10.90086728789882 -25.32985920060896 3.653720714733527
1929 1 6.380151483764097 -29.8967433493727 -1.5151939231985
1930 1 9.115088935302442 -29.8596893259206 -1.51515235397012
1931 1 8.186776516714053 -27.62078960911825 -0.222929021862888
1932 1 10.92060398248567 -27.58486728999724 -0.2228879041684692
1933 1 9.989705416728089 -25.34188551203265 1.069334195575695
1934 1 12.72301242899224 -25.3089317665519 1.069369891268208
1935 1 11.78917424967552 -23.06129046726013 2.361586724524384
1936 1 14.52289552664793 -23.03369079531928 2.36161167714615
1937 1 13.58589396780566 -20.78095138632221 3.653819145265841
1938 1 16.32145620715706 -20.76177209726351 3.653826031896109
1939 1 8.203613194486499 -29.87144556412638 -4.099542211908518
1940 1 10.93765774728085 -29.83821156169302 -4.099495546284354
1941 1 10.00944830160692 -27.596031214965 -2.807277261371678
1942 1 12.74272499253751 -27.56519846096166 -2.807233574899654
1943 1 11.81195556738538 -25.31885905623393 -1.515017215358516
1944 1 14.54521478207043 -25.29242078278744 -1.514982362932028
1945 1 13.61159082575741 -23.04155790718423 -0.2227710985138988
1946 1 16.34599103262668 -23.02199819131219 -0.2227525559055369
1947 1 15.40937433009669 -20.76655106168658 1.0694507017232
1948 1 18.14665795228711 -20.75683674729448 1.069441801874716
1949 1 17.20721827189557 -18.49737878133702 2.361634376201363
1950 1 19.94995002194745 -18.50067949246387 2.361581234512213
1951 1 19.00854912579531 -16.23898901335858 3.653757839593361
1952 1 21.76020566799813 -16.25772819043389 3.653641645946749
1953 1 13.63408310067819 -25.30011187725423 -4.099368281858613
1954 1 16.36785213584675 -25.28044146484767 -4.099340053454343
1955 1 15.43434272917693 -23.02717448365764 -2.807131875589731
1956 1 18.17010966166125 -23.01552787270609 -2.807127437161105
1957 1 17.23386262303815 -20.75855746342372 -1.514926656186381
1958 1 19.9736196778104 -20.75748576392357 -1.514959421987719
1959 1 19.03511393224031 -18.49803680573168 -0.222770618648967
1960 1 21.78152988247171 -18.50969106438297 -0.2228558974785103
1961 1 20.84221064550584 -16.25022108756295 1.069311150423906
1962 1 23.59830705872513 -16.27520529525662 1.069166094172197
1963 1 22.66134635581152 -14.01944690993434 2.361294920685324
1964 1 25.42923716377792 -14.05529204780196 2.361110616648219
1965 1 24.49998340005566 -11.80714561140002 3.653190294825158
1966 1 27.27861320970327 -11.84769583241749 3.653025317302687
1967 1 19.05989637287875 -20.75651675501208 -4.099318977305613
1968 1 21.80261933163874 -20.76278057946608 -4.099379088753638
1969 1 20.86542037310623 -18.50462763038519 -2.807197277716122
1970 1 23.61559061714994 -18.52240881534763 -2.807310442813415
1971 1 22.67892666630262 -16.26613836343598 -1.515157101390536
1972 1 25.43871063277378 -16.29445802728065 -1.515316123900222
1973 1 24.50615965475085 -14.04331679033011 -0.2232043808711092
1974 1 27.27607014037363 -14.07848163849681 -0.2233740970949202
1975 1 26.3525172118574 -11.83487888106058 1.068698762516619
1976 1 29.12991361209559 -11.8710368625111 1.068572936632481
1977 1 28.21984416376408 -9.634869057762813 2.360641536246942
1978 1 24.51826515345962 -16.2847087463572 -4.099637290983259
1979 1 27.28069218637788 -16.31408270273381 -4.099795599239252
1980 1 26.35258120590981 -14.06705476465629 -2.807696184694675
1981 1 29.12307257138823 -14.10001312627448 -2.807841239968881
1982 1 28.20443925105327 -11.8597503084295 -1.515766471939183
1983 1 8.203613194486499 -29.87144556412638 3.653582721948482
1984 1 10.93765774728085 -29.83821156169302 3.653629387572646
1985 1 10.02642780846727 -29.84859657168514 1.069238261572307
1986 1 12.75991249549871 -29.81970928542714 1.069287075708648
1987 1 11.83168401602172 -27.5745772971805 2.361501750897546
1988 1 14.5648446158152 -27.54927553693489 2.361543936556958
1989 1 13.63408310067819 -25.30011187725423 3.653756651998386
1990 1 16.36785213584675 -25.28044146484767 3.653784880402656
1991 1 11.84880875322406 -29.82857216283976 -1.515104192537222
1992 1 14.58211022755819 -29.80439933090391 -1.515056937488661
1993 1 13.65376535036238 -27.55675859503134 -0.2228443982332055
1994 1 16.38727822127927 -27.5371996090051 -0.2228085277662698
1995 1 15.45645538004302 -25.28586609734158 1.069402195724166
1996 1 18.19129144005885 -25.27288920259619 1.069417827450948
1997 1 17.25789632225152 -23.01813197100101 2.361624080272784
1998 1 19.99562999174378 -23.01383610192176 2.361608210298347
1999 1 19.05989637287875 -20.75651675501208 3.653805956551387
2000 1 21.80261933163874 -20.76278057946608 3.653745845103362
2001 1 13.67100182662347 -29.81164642415411 -4.099447011802347
2002 1 16.40451764019865 -29.79237587347168 -4.099405441701625
2003 1 15.47600254684763 -27.54275681953413 -2.807193924884297
2004 1 18.21033022429007 -27.52890812589142 -2.807169201212414
2005 1 17.27945022826601 -25.2761268355563 -1.514959723958329
2006 1 20.0158464508979 -25.26945540393967 -1.514961613062027
2007 1 19.08267545367579 -23.01412182613926 -0.2227576575570672
2008 1 21.822804563142 -23.01626377604321 -0.2227970571535282
2009 1 20.8878559798651 -20.75961837668013 1.069395467791125
2010 1 23.633716561957 -20.77164352996702 1.06930966112314
2011 1 22.69826382662331 -18.51567941461915 2.361481085265148
2012 1 25.45183271289958 -18.53741768814045 2.361349334239304
2013 1 24.51826515345962 -16.2847087463572 3.65348764287374
2014 1 27.28069218637788 -16.31408270273381 3.653329334617748
2015 1 19.10341296895312 -25.27068375861794 -4.099332675929322
2016 1 21.84174399755844 -25.26966888208096 -4.099354979901921
2017 1 20.90900048134192 -23.01458217242916 -2.807154889116788
2018 1 23.6517367408904 -23.02202816265555 -2.807217522794879
2019 1 22.71791018744023 -20.76683463755843 -1.515032878968755
2020 1 25.46677604846036 -20.78300310970444 -1.515138715471827
2021 1 24.53346520320515 -18.52970714655986 -0.2229796961504392
2022 1 27.28979882912297 -18.55353727443003 -0.2231191324992
2023 1 26.35955021079671 -16.30429292322095 1.069005776402707
2024 1 29.12354360037841 -16.33313698899799 1.068859178400345
2025 1 28.19959739594766 -14.08948642744972 2.360952449286979
2026 1 24.55001569861921 -20.77707471459491 -4.099475796444956
2027 1 27.30152281129461 -20.79590074923954 -4.099593931630323
2028 1 26.37063199657604 -18.5454012917376 -2.80744737711714
2029 1 29.12897859735392 -18.56987446642601 -2.807584738639088
2030 1 28.20204981906855 -16.3237238390494 -1.515469661899368
2031 1 13.67100182662347 -29.81164642415411 3.653677922054652
2032 1 16.40451764019865 -29.79237587347168 3.653719492155375
2033 1 15.49327120151949 -29.79797584175089 1.069332011837397
2034 1 18.22739163716756 -29.78360778050416 1.06936385111419
2035 1 17.29870911590815 -27.53259092308085 2.361574806530143
2036 1 20.03426597198013 -27.52418611100225 2.361584339613597
2037 1 19.10341296895312 -25.27068375861794 3.653792257927678
2038 1 21.84174399755844 -25.26966888208096 3.653769953955078
2039 1 17.31588118879966 -29.78759159630692 -1.515019753600624
2040 1 20.05095984967993 -29.7779468090277 -1.515001070484965
2041 1 19.12217325826407 -27.52611967872718 -0.22279097197992
2042 1 21.85928869235812 -27.52269305239384 -0.2227992267931832
2043 1 20.9286172438071 -25.26914051649208 1.06940594116445
2044 1 23.66910587278579 -25.27295343740593 1.069362802544574
2045 1 22.73705032369907 -23.01877999289053 2.361556944732633
2046 1 25.4823869711683 -23.03031638668323 2.361474440182317
2047 1 24.55001569861921 -20.77707471459491 3.653649137412044
2048 1 27.30152281129461 -20.79590074923954 3.653531002226678
2049 1 19.13907636295414 -29.78040230507856 -4.099379810649127
2050 1 21.8754043410724 -29.77514579949691 -4.099376636015248
2051 1 20.94663163780108 -27.52306116398501 -2.807168345663906
2052 1 23.68552564339076 -27.52400049563779 -2.807195193614394
2053 1 22.75523851308196 -25.27096568144534 -1.514994436986725
2054 1 25.4979482577377 -25.27868937951298 -1.515056506399091
2055 1 24.56685448373187 -23.02590651024596 -0.222870200220174
2056 1 27.31460098717514 -23.04036214654576 -0.222967227878874
2057 1 26.38395937264545 -20.78931326314544 1.069196659339204
2058 1 29.13760675032243 -20.80954885058424 1.069074122338577
2059 1 28.20926862424646 -18.56172329278494 2.361209857547417
2060 1 24.58334480798063 -25.27555383920476 -4.099407947390148
2061 1 27.32819577718281 -25.28626804143034 -4.09948531774161
2062 1 26.39831159107698 -23.03516407470387 -2.80730803168911
2063 1 29.14814854220587 -23.05149635921383 -2.807413494948287
2064 1 28.21942079936081 -20.80267288077049 -1.515259989099912
2065 1 19.13907636295414 -29.78040230507856 3.653745123207872
2066 1 21.8754043410724 -29.77514579949691 3.653748297841752
2067 1 20.96306329778656 -29.77620745858833 1.069374994024602
2068 1 23.70085099380708 -29.77488407708329 1.069361643551819
2069 1 22.77225055920668 -27.52302578608865 2.361566773597143
2070 1 25.51302503939917 -27.52763354968075 2.361522297850549
2071 1 24.58334480798063 -25.27555383920476 3.653716986466852
2072 1 27.32819577718281 -25.28626804143034 3.653639616115389
2073 1 22.78799687457333 -29.77471966085256 -1.515006118712684
2074 1 25.5273657379745 -29.77679614833366 -1.515035644549771
2075 1 24.59911748349697 -27.52555671086992 -0.2228351099381157
2076 1 27.34176270454406 -27.53310976244247 -0.222894805828895
2077 1 26.41290406775979 -25.28228475998953 1.069292551583013
2078 1 29.15970447079158 -25.29513242741078 1.06920444043342
2079 1 28.23122433463378 -23.04583039225362 2.361372432165847
2080 1 24.61397303958705 -29.77559219647232 -4.099398198359326
2081 1 27.35495731456505 -29.78049970635664 -4.099442362255808
2082 1 26.42724308894045 -27.5301707842593 -2.807247651877697
2083 1 29.17165558510201 -27.53997064604568 -2.807319222230669
2084 1 28.24380344457073 -25.29057153267847 -1.515139843938407
2085 1 24.61397303958705 -29.77559219647232 3.653726735497673
2086 1 27.35495731456505 -29.78049970635664 3.653682571601191
2087 1 26.44102842136613 -29.77844784575695 1.069324543714733
2088 1 29.18358512585661 -29.78561977132639 1.069268147190801
2089 1 28.25657178068327 -27.53639417214834 2.361456209375214
2090 1 28.26914586866952 -29.78290527916949 -1.515086265142912
