bcc crystal a0=3.1652 x=[1.0, 1.0, 1.0] y=[-1.0, 0.0, 1.0] z=[1.0, -2.0, 1.0] (generated by make_crystal.py)

2090 atoms
1 atom types

-30 30 xlo xhi
-30 30 ylo yhi
-4.1 4.1 zlo zhi

Masses

1 183.84


Atoms # atomic

1 1 -42.68607474864336 28.42558717286543 -3.044580364931533
2 1 -43.60673314963933 28.4323944705713 -5.628940552073077
3 1 -40.84453030973939 28.4114903859528 -5.628988521148726
4 1 -42.70502990581126 26.19479804376843 0.832023825452304
5 1 -43.60673314963933 28.4323944705713 2.124184381783923
6 1 -40.84453030973939 28.4114903859528 2.124136412708274
7 1 -42.72663519323117 23.96490509678113 -3.044500356804272
8 1 -43.62601526887275 26.20170284093202 -1.752338563967661
9 1 -40.8627325246574 26.18041914724747 -1.752380320615694
10 1 -41.76533800054554 28.41861864758056 -0.4602213718105772
11 1 -39.00273672588953 28.39676679504154 -0.46027658409144
12 1 -43.64790369646322 23.97184495807866 -5.628865616597999
13 1 -40.88365672682508 23.95037111416721 -5.628898993314815
14 1 -41.78393352903063 26.18770389109156 -4.336740034907802
15 1 -39.02004815523743 26.16527864142465 -4.336790033572788
16 1 -39.92366007361969 28.40420507785534 -3.044631949748449
17 1 -37.16077379256516 28.38145570932438 -3.044694303233758
18 1 -38.08177076905069 28.38918118999221 -5.629047336834923
19 1 -35.31873855016236 28.36562524474888 -5.62911637317591
20 1 -42.75124274779515 21.73586455343641 0.8320940542076318
21 1 -43.64790369646322 23.97184495807866 2.124259317259002
22 1 -40.88365672682508 23.95037111416721 2.124225940542185
23 1 -42.77920955246321 19.50757355083228 -3.044446477993972
24 1 -43.67272306116859 21.74276456308943 -1.7522747223497
25 1 -40.90771305019933 21.721333616516 -1.752297536104585
26 1 -41.8052180376647 23.95774866187866 -0.4601364794651073
27 1 -39.04012629568098 23.9349391041434 -0.4601787993769246
28 1 -39.94143445661309 26.1729436733288 0.8319779993613909
29 1 -37.17705298755082 26.1493926131514 0.8319194789023066
30 1 -38.08177076905069 28.38918118999221 2.124077597022077
31 1 -35.31873855016236 28.36562524474888 2.12400856068109
32 1 -43.70079622735182 19.51434854437893 -5.628819301364536
33 1 -40.93533315742943 19.49323186568527 -5.628829644221137
34 1 -41.82957222791558 21.72872366655438 -4.336663471142874
35 1 -39.06344169641805 21.70577557961673 -4.336695443008328
36 1 -39.96195706272255 23.94276878411332 -3.044538100892992
37 1 -37.19610856504953 23.91859459103184 -3.044590104731581
38 1 -38.0985837993446 26.15742677459939 -1.75243456362898
39 1 -35.33384580195193 26.13280643186367 -1.7525015430058
40 1 -36.2397584727735 28.37359981989834 -0.4603423622764511
41 1 -33.47674484638559 28.34937966052324 -0.460417173401318
42 1 -38.11817326960447 23.92688087809216 -5.628946076284685
43 1 -35.35169592480231 23.90135034236825 -5.629008228773055
44 1 -36.25546879391403 26.14118280686831 -4.336852817898205
45 1 -33.49054930201 26.11560445983401 -4.336927715310336
46 1 -34.3977287792887 28.35754620475245 -3.044766372015661
47 1 -31.63492113791618 28.33286699480079 -3.044845519594047
48 1 -32.55580324971535 28.34114554742245 -5.629193567823087
49 1 -29.79340591958813 28.31628617569755 -5.629275038309241
50 1 -42.81087231158749 17.2798539813097 0.8321235526107704
51 1 -43.70079622735182 19.51434854437893 2.124305632492464
52 1 -40.93533315742943 19.49323186568527 2.124295289635864
53 1 -42.84651131386928 15.05243859906564 -3.044450514150137
54 1 -43.73241998951163 17.28641332305929 -1.752253605435097
55 1 -40.96694449289171 17.26590694431493 -1.752250254088407
56 1 -41.85738937999655 19.50053872470945 -0.4600749046290913
57 1 -39.09050830504759 19.47775327186378 -0.4600939431294591
58 1 -39.98566807940994 21.71368661144635 0.8320668194342233
59 1 -37.21847110166773 21.68913844615428 0.8320244519597764
60 1 -38.11817326960447 23.92688087809216 2.124178857572315
61 1 -35.35169592480231 23.90135034236825 2.124116705083944
62 1 -43.76783141131484 15.05869403724369 -5.628831909660454
63 1 -41.00292970424658 15.03909425910933 -5.62881481871784
64 1 -41.88904971365292 17.27302380489579 -4.336625239843757
65 1 -39.12185922154664 17.25074651148586 -4.33662930586247
66 1 -40.01303947410497 19.48564074149113 -3.044460965136779
67 1 -37.24474202751703 19.46104322204578 -3.044490389682147
68 1 -38.14104001341401 21.69759444313529 -1.752334556377988
69 1 -35.37287509124967 21.67139186505322 -1.75238841423791
70 1 -36.27394463476689 23.91008276214581 -0.4602358429664484
71 1 -33.50701247175959 23.88325839208369 -0.4603081605169363
72 1 -34.41220011025692 26.12427532910034 0.8318484374453079
73 1 -31.64730958871814 26.09792106017022 0.8317667817081729
74 1 -32.55580324971535 28.34114554742245 2.123931366033913
75 1 -29.79340591958813 28.31628617569755 2.123849895547759
76 1 -38.16774128700823 19.4695577656477 -5.628853658024488
77 1 -35.39807314701693 19.44301882902206 -5.628895216040005
78 1 -36.29574522765181 21.6804045447 -4.336743434311796
79 1 -33.52676636882609 21.65254080593393 -4.33680954551289
80 1 -34.42937897261334 23.89240515707768 -3.044657373495242
81 1 -31.66221643302275 23.86442484733827 -3.044739217250505
82 1 -32.5689123700582 26.10681227091611 -1.75258000841073
83 1 -29.8042927704618 26.07995210540465 -1.752666523223792
84 1 -30.71411610224618 28.32457051873868 -0.4604977702713804
85 1 -27.95234025201696 28.2998923489636 -0.4605789953838073
86 1 -32.5846172909063 23.87392511836024 -5.629085438919853
87 1 -29.81749958070233 23.84502699940564 -5.629175294806229
88 1 -30.72576232350414 26.08895732893244 -4.337012087615703
89 1 -27.96167762759028 26.0619655012625 -4.337100762499881
90 1 -28.87280824467385 28.30804766278724 -3.044927219826994
91 1 -26.11185713908367 28.2839987249446 -3.045005195305205
92 1 -27.03201823079202 28.29186122061726 -5.629355033445347
93 1 -24.27206804786517 28.26897294637629 -5.629426562794777
94 1 -42.88630335557538 12.8249638073995 0.8320764821965425
95 1 -43.76783141131484 15.05869403724369 2.124293024196546
96 1 -41.00292970424658 15.03909425910933 2.12431011513916
97 1 -42.93026693541764 10.59697473858366 -3.044549155986829
98 1 -43.80716542052072 12.83084041098389 -1.752308540846987
99 1 -41.04356957101267 12.81240791924515 -1.752279319995246
100 1 -41.92488190641421 15.0459115653457 -0.4600697961385465
101 1 -39.15800330455886 15.02450740230744 -0.4600580226711677
102 1 -40.04454966590107 17.25848687810547 0.8321234237547863
103 1 -37.27557416298964 17.23423457974548 0.8321099539935328
104 1 -38.16774128700823 19.4695577656477 2.124271275832513
105 1 -35.39807314701693 19.44301882902206 2.124229717816994
106 1 -43.85040702975328 10.60242396464674 -5.628936622029502
107 1 -41.08897162875677 10.58533894894206 -5.628898823310186
108 1 -41.96511109970135 12.81882634814513 -4.336663700760985
109 1 -39.19935803122382 12.79863804200955 -4.336637087150002
110 1 -40.08064124756999 15.03196666466209 -3.044435860940869
111 1 -37.31162880476757 15.00850161561215 -3.044431408255582
112 1 -38.19886842269442 17.24266832394802 -1.752258754095017
113 1 -35.42807356175559 17.21623024533343 -1.752283910276532
114 1 -36.32151644638809 19.4521997084971 -0.4601292178128409
115 1 -33.55058361390608 19.42362263414768 -0.4601845472457846
116 1 -34.44987605732273 21.66210223689224 0.8319645327161933
117 1 -31.68030341391112 21.63264394504475 0.8318859982899423
118 1 -32.5846172909063 23.87392511836024 2.124039494937146
119 1 -29.81749958070233 23.84502699940564 2.12394963905077
120 1 -38.2350031318845 15.0166937342969 -5.628806424635916
121 1 -35.46371665994515 14.99088007748988 -5.628811809138986
122 1 -36.35197538459204 17.22542761833095 -4.336648317346817
123 1 -33.57938272392253 17.1966010673026 -4.336687649525401
124 1 -34.47442381202634 19.43349429792039 -3.04453864474227
125 1 -31.70241121551904 19.40284313468648 -3.04460900004331
126 1 -32.603567326216 21.64271672830619 -1.752460765052543
127 1 -29.83369503525772 21.61183709373624 -1.752550971789092
128 1 -30.73983491922344 23.85478210399168 -0.4603942624356201
129 1 -27.97308178215634 23.82533130806147 -0.4604895539444456
130 1 -28.8829236181608 26.07094121886642 0.8316787998622925
131 1 -26.1196434362724 26.04430840009418 0.8315914097975792
132 1 -27.03201823079202 28.29186122061726 2.123769900411653
133 1 -24.27206804786517 28.26897294637629 2.123698371062222
134 1 -32.62657162633977 19.41340399113271 -5.628957939807904
135 1 -29.85376202363216 19.38074386970731 -5.629043784815833
136 1 -30.75700235049657 21.62234202959968 -4.336894081578998
137 1 -27.98719985494676 21.59036093658192 -4.336993930886804
138 1 -28.89523874225811 23.8351957780758 -3.044832184416357
139 1 -26.12919867941682 23.80570943163515 -3.044929193582623
140 1 -27.04057712862845 26.05307088957059 -1.752755026493884
141 1 -24.2783526719372 26.0274079621478 -1.752837166072264
142 1 -25.19187012771956 28.27635249547123 -0.4606541461642228
143 1 -22.43304767110788 28.25522602571662 -0.4607162157778339
144 1 -27.05105855623421 23.81548347471119 -5.629271979347988
145 1 -24.28608093905305 23.78664775854747 -5.629365976973114
146 1 -25.19889619568389 26.03573394495339 -4.337186041122354
147 1 -22.4379294829766 26.01176207738995 -4.337258879819366
148 1 -23.35245896069069 28.26191272604978 -3.045072342226677
149 1 -20.59481899622771 28.24319253235276 -3.045122597712946
150 1 -21.51383531064291 28.24896774595906 -5.629482958448115
151 1 -18.75734159792765 28.23330208270594 -5.629520204513257
152 1 -42.97820738867656 8.367948144057223 0.8319204827258684
153 1 -43.85040702975328 10.60242396464674 2.124188311827497
154 1 -41.08897162875677 10.58533894894206 2.124226110546814
155 1 -43.0296743205497 6.137336143082983 -3.044763558214452
156 1 -43.8973452067132 8.372960811175069 -1.752467728523743
157 1 -41.13899310424598 8.357276326220358 -1.752426727253414
158 1 -42.00979623612745 10.59128632474422 -0.4601615615461259
159 1 -39.2461582229997 10.57257692234504 -0.4601235203147762
160 1 -40.12165880423058 12.80568650882356 0.8321045747206746
161 1 -37.35350021922151 12.78345234832811 0.8321269186972566
162 1 -38.2350031318845 15.0166937342969 2.124318509221084
163 1 -35.46371665994515 14.99088007748988 2.124313124718014
164 1 -43.94753897676644 6.141951912389315 -5.629150526672682
165 1 -41.19317469040524 6.127557572704633 -5.629112828018391
166 1 -42.05876495335204 8.362725877235222 -4.33681580577708
167 1 -39.29834902057866 8.345613512542755 -4.336772240629642
168 1 -40.16776797949551 10.5791106347124 -3.04451113794648
169 1 -37.40160199977204 10.55848112425638 -3.0444738515241
170 1 -38.27664581026833 12.79123621667889 -1.752254598517481
171 1 -35.50582060075585 12.7666110711201 -1.752238807041287
172 1 -36.38786963038754 14.99990580753729 -0.4600581397947228
173 1 -33.6142061502843 14.97143100561904 -0.4600764286501615
174 1 -34.50387325332037 17.20662624853422 0.8320780275697954
175 1 -31.72958674969624 17.17524251858519 0.8320220330690387
176 1 -32.62657162633977 19.41340399113271 2.124166994049096
177 1 -29.85376202363216 19.38074386970731 2.124081149041166
178 1 -38.32411327923838 10.56571055408424 -5.628861005494556
179 1 -35.55504551946009 10.5427933807016 -5.628826019092978
180 1 -36.42989913179768 12.77525523652103 -4.33661768860914
181 1 -33.65614760217937 12.7478332266456 -4.336611527855995
182 1 -34.53916331581036 14.98139751544046 -3.04444282754864
183 1 -31.76308780504477 14.94994096856577 -3.044477587533315
184 1 -32.65461462880462 17.18614264772399 -1.752331275851082
185 1 -29.87885297529618 17.15210945069936 -1.752406018623903
186 1 -30.77813038312141 19.39195057730269 -0.4602626585887986
187 1 -28.00491932342532 19.35750214635671 -0.4603631260393051
188 1 -28.91041536025505 21.6011627274698 0.831790623300569
189 1 -26.14111709439175 21.56859036949126 0.8316847422219227
190 1 -27.05105855623421 23.81548347471119 2.123852954509013
191 1 -24.28608093905305 23.78664775854747 2.123758956883886
192 1 -32.68884575113938 14.96095390214474 -5.628837862624108
193 1 -29.91043501135323 14.92622178676755 -5.628892926009504
194 1 -30.80432275896976 17.16389712453238 -4.336752804552107
195 1 -28.02745455050887 17.12726389747857 -4.336847328848612
196 1 -28.92934404896685 19.36924903902064 -3.044702371790574
197 1 -26.1562435913276 19.33345634580408 -3.044814650972352
198 1 -27.06408713051301 21.57948302700146 -1.752654394636966
199 1 -24.29576471888413 21.5470596909963 -1.752761019048953
200 1 -25.20753066579714 23.79607365683057 -0.4605856986572505
201 1 -22.44392496007285 23.76874432588217 -0.4606713861351828
202 1 -23.35802700808419 26.01939483423335 0.8315134319994617
203 1 -20.59843650519988 25.99791688543928 0.8314533913401809
204 1 -21.51383531064291 28.24896774595906 2.123641975408884
205 1 -18.75734159792765 28.23330208270594 2.123604729343742
206 1 -27.08053534346267 19.34555091427316 -5.629150653917074
207 1 -24.3081559148084 19.30915632920853 -5.62926947910203
208 1 -25.21832991358015 21.55775496183744 -4.337100943640568
209 1 -22.45144216876197 21.52647415849764 -4.337201655986918
210 1 -23.36487273834213 23.77750997600416 -3.045019706768195
211 1 -20.60285761280483 23.75268650324502 -3.045092021502578
212 1 -21.51806580769455 26.00457929276521 -1.752903979286283
213 1 -18.75985441328551 25.98642972160021 -1.752949028906112
214 1 -19.67599159184765 28.23795370078539 -0.4607600256967954
215 1 -16.92050641422077 28.22594422469215 -0.4607846291700246
216 1 -21.52325099219029 23.76043935797038 -5.629445555432975
217 1 -18.76290120233912 23.73920461842395 -5.629500770148722
218 1 -19.67903642114239 25.99184457270471 -4.337311588487804
219 1 -16.92206983599759 25.97781943655207 -4.337341442992836
220 1 -17.83885318909168 28.22928482972553 -3.045153368742444
221 1 -15.08413970155301 28.22143107869129 -3.045167429802017
222 1 -16.00227756408595 28.22331655160967 -5.629539167954147
223 1 -13.24801723330285 28.21996382945303 -5.629546358990916
224 1 -43.08394638789723 3.904628501084943 0.8316530297267197
225 1 -43.94753897676644 6.141951912389315 2.123974407184318
226 1 -41.19317469040524 6.127557572704633 2.124012105838609
227 1 -43.14005639792167 1.669423792694088 -3.045071669784425
228 1 -44.00030800458995 3.908938096855948 -1.752730788619454
229 1 -41.25070777404272 3.895548411528769 -1.752702773278878
230 1 -42.11156038347922 6.132542842066571 -0.4603760253841955
231 1 -39.35548430907868 6.11694409851137 -0.4603346283990053
232 1 -40.21886451067029 8.351579648508647 0.831962777430211
233 1 -37.45602071550519 8.332768688529665 0.8320087080156311
234 1 -38.32411327923838 10.56571055408424 2.124263928362445
235 1 -35.55504551946009 10.5427933807016 2.124298914764021
236 1 -44.05475764200676 1.673561310858613 -5.629450943857631
237 1 -41.31045694621442 1.660739541273114 -5.62943734361088
238 1 -42.16741832415629 3.900168978438018 -4.337087601501247
239 1 -39.41666418404508 3.885772951785339 -4.337056285015803
240 1 -40.27449207980347 6.12236410125916 -3.0447240631161
241 1 -37.5163620619814 6.105338471189333 -3.044678538797689
242 1 -38.37741334509415 8.3393527082718 -1.752381939335315
243 1 -35.61169789869021 8.318496791049782 -1.752334146061797
244 1 -36.47859115991824 10.55085469491495 -0.4600871476968911
245 1 -33.70619990182004 10.52519219100683 -0.4600568060069017
246 1 -34.58124337732198 12.75748340448025 0.8321383363320725
247 1 -31.80433359351281 12.72679809092141 0.8321308236426159
248 1 -32.68884575113938 14.96095390214474 2.124287071232891
249 1 -29.91043501135323 14.92622178676755 2.124232007847496
250 1 -38.4361195928544 6.11127678015395 -5.629069421388436
251 1 -35.67550074351139 6.092536427027091 -5.629019353042633
252 1 -36.53413051594595 8.325829028769606 -4.3367252898682
253 1 -33.76500254279094 8.302479652767751 -4.336676651839177
254 1 -34.63092798297424 10.53425491169082 -3.04444083214355
255 1 -31.85475301836959 10.50527903413879 -3.044418623478033
256 1 -32.73051570977496 12.7376191952154 -1.752238912183723
257 1 -29.95028878879701 12.70315751701141 -1.752265192505561
258 1 -30.83694432214045 14.93836965353222 -0.4601208616077954
259 1 -28.0564452559959 14.90015949275579 -0.4601997640863049
260 1 -28.95321505615584 17.13989096599217 0.8319374294732735
261 1 -26.17578892809306 17.10094252874177 0.8318240777880046
262 1 -27.08053534346267 19.34555091427316 2.123974279939926
263 1 -24.3081559148084 19.30915632920853 2.12385545475497
264 1 -32.78082157425121 10.51555287643045 -5.628799220272763
265 1 -30.00039124817269 10.48256715447116 -5.628790211441227
266 1 -30.87759208354737 12.71532559510475 -4.336627723574708
267 1 -28.0940351058312 12.67657037805122 -4.336678754963406
268 1 -28.98358877459619 14.91348578898557 -3.044544181689532
269 1 -26.20148741379462 14.87179627611606 -3.044649091001037
270 1 -27.10162520970757 17.11426382289257 -1.752510243153579
271 1 -24.3243796512515 17.07364253051276 -1.752638368390664
272 1 -25.2320984922664 19.32129422233717 -0.4604795011796732
273 1 -22.46109655656287 19.28540429411938 -0.4605970611291097
274 1 -23.3734580625835 21.53659818712056 0.8315801840097903
275 1 -20.60837858375895 21.50769533198523 0.8314925014159236
276 1 -21.52325099219029 23.76043935797038 2.123679378424025
277 1 -18.76290120233912 23.73920461842395 2.123624163708278
278 1 -27.12905633759378 14.88625366285718 -5.628984705632989
279 1 -24.34614278388581 14.84145569384849 -5.629114712861776
280 1 -25.25001516080826 17.08737102483075 -4.336968810030164
281 1 -22.47384406856996 17.04621389165047 -4.33710363929708
282 1 -23.38447117652674 19.29715121946213 -3.044933962308951
283 1 -20.61545375662287 19.26326463986484 -3.045040659669733
284 1 -21.52974304803752 21.51680010506078 -1.752856081617192
285 1 -18.76667399447485 21.49168782174215 -1.752924688779737
286 1 -19.68274403707434 23.74557802511687 -0.4607354865768063
287 1 -16.92394818450796 23.72900178006795 -0.4607723561762129
288 1 -17.84087326219861 25.9817355742494 0.831416058223116
289 1 -15.0848769631091 25.97251032493816 0.8313992299656665
290 1 -16.00227756408595 28.22331655160967 2.123585765902853
291 1 -13.24801723330285 28.21996382945303 2.123578574866085
292 1 -21.53807837303815 19.27405696052093 -5.629382857801126
293 1 -18.77146812743822 19.24401542239438 -5.6294692536433
294 1 -19.68735673078717 21.49928322659025 -4.337280416408124
295 1 -16.92624891054686 21.479421730181 -4.337326858169489
296 1 -17.84331137931603 23.73365273847143 -3.045138025940446
297 1 -15.08575613663005 23.72266817049308 -3.045158580614725
298 1 -16.00341552742859 25.97473091892633 -1.752971948749945
299 1 -13.24799571635825 25.97077970747499 -1.752980171875933
300 1 -14.16606333853779 28.22030920681523 -0.4607947140856916
301 1 -11.41188739708641 28.22160950911762 -0.4607997711229381
302 1 -16.00477704543766 23.72532125902513 -5.629529011601387
303 1 -13.24797012964045 23.72059648977415 -5.629538582983663
304 1 -14.16641696412617 25.97118728305225 -4.337353296019676
305 1 -11.41110503845868 25.97272063035482 -4.337358896516751
306 1 -12.32996927267622 28.22039894000469 -3.045172923231916
307 1 -9.575499417223577 28.22629298661922 -3.045180885231964
308 1 -10.49374052296597 28.2235816391238 -5.629552252761817
309 1 -7.738631417635447 28.2338059372442 -5.629567632498956
310 1 -43.1968612791154 -0.5685065362348518 0.8313227795234894
311 1 -44.05475764200676 1.673561310858613 2.123673989999369
312 1 -41.31045694621442 1.660739541273114 2.12368759024612
313 1 -43.25314838621132 -2.809178717725036 -3.045401949855689
314 1 -44.10984130848035 -0.5643811792033138 -1.753051422590051
315 1 -41.37104809238161 -0.5771627277724491 -1.753054044731426
316 1 -42.22529161060476 1.665152854061399 -0.4606921655026517
317 1 -39.48054814935929 1.651445146457299 -0.4606769782885094
318 1 -40.33379659396485 3.89075438064151 0.831682626456381
319 1 -37.58163836056497 3.875182997721005 0.8317178624824717
320 1 -38.4361195928544 6.11127678015395 2.124055512468564
321 1 -35.67550074351139 6.092536427027091 2.124105580814367
322 1 -44.16445260674333 -2.80490374218721 -5.629771557970312
323 1 -41.43101163793084 -2.818179351789762 -5.629788775836026
324 1 -42.28392862922445 -0.5727641214871921 -4.337428046810862
325 1 -39.54546566702697 -0.5864228604608885 -4.337431342363577
326 1 -40.39554520146226 1.656173961627702 -3.045057312352927
327 1 -37.65025892424114 1.641447544625368 -3.045040206565019
328 1 -38.49928706415802 3.880588420193479 -1.752669582950224
329 1 -35.74539784855171 3.863625516529111 -1.752629657196991
330 1 -36.59617112899669 6.099102075557139 -0.460286881102822
331 1 -33.83250471038281 6.078267375761482 -0.4602319404591118
332 1 -34.68867339492455 8.310729776843148 0.8320570945669268
333 1 -31.91547717366776 8.284299819934802 0.8321046985712779
334 1 -32.78082157425121 10.51555287643045 2.124325713584237
335 1 -30.00039124817269 10.48256715447116 2.124334722415773
336 1 -38.56545635099168 1.64654088810737 -5.629421244150214
337 1 -35.81949465301607 1.630630398331976 -5.629401785817691
338 1 -36.66368718087129 3.869536429022292 -4.337018811379625
339 1 -33.90763221457867 3.850899447701106 -4.336973233580874
340 1 -34.75429851895425 6.085605490692465 -3.044626065013439
341 1 -31.98685923058025 6.062165106455048 -3.044566170154368
342 1 -32.84062556813779 8.293690934636203 -1.752285717729138
343 1 -30.06257754450094 8.26340556303159 -1.752242446141981
344 1 -30.92795511545109 10.49430694109399 -0.4600404466492065
345 1 -28.14284621798785 10.45648193514721 -0.4600517392297507
346 1 -29.02243034705428 12.69025163730159 0.8320929524945029
347 1 -26.23578503062868 12.6467785012628 0.8320110238448515
348 1 -27.12905633759378 14.88625366285718 2.12414022822401
349 1 -24.34614278388581 14.84145569384849 2.124010220995224
350 1 -32.91005102269116 6.070473109283734 -5.62896192034415
351 1 -30.13788910702562 6.043722517191791 -5.628897556302824
352 1 -30.98948652230081 8.274232869756286 -4.336630683302702
353 1 -28.20567991703692 8.239067395763872 -4.336597336432486
354 1 -29.07202958836158 10.46998502723732 -3.04441873583159
355 1 -26.28198440740251 10.42639404433601 -3.044459695046666
356 1 -27.16513621411235 12.66208455457427 -1.752330947335393
357 1 -24.37604305494123 12.61375339336533 -1.752448302115218
358 1 -25.27381820424631 14.85683756107108 -0.4603176114698324
359 1 -22.49121285854057 14.80991136692626 -0.4604665536583681
360 1 -23.39896230364108 17.0598751551162 0.8316913242195125
361 1 -20.62480803686936 17.01992733743831 0.8315618466939232
362 1 -21.53807837303815 19.27405696052093 2.123742076055875
363 1 -18.77146812743822 19.24401542239438 2.1236556802137
364 1 -27.21282928714465 10.44197759916859 -5.628815033084321
365 1 -24.41796252171341 10.39173020603194 -5.628896641701631
366 1 -25.30605463530664 12.63065687474663 -4.336778041605673
367 1 -22.51570523579066 12.57794764565059 -4.336930401736548
368 1 -23.41856843260862 14.82576288523609 -3.044789748666014
369 1 -20.63764965249773 14.77856989179985 -3.04494445594181
370 1 -21.549102783674 17.03283144394036 -1.752772230317554
371 1 -18.77775977876917 16.99646465190128 -1.752882267104591
372 1 -19.6932473352649 19.25319344237464 -0.4606946688282403
373 1 -16.92913511342907 19.22901906487228 -0.4607544688318037
374 1 -17.84631436966814 21.48502974424083 0.831434846395394
375 1 -15.0868228668501 21.47173960824463 0.8314091302489357
376 1 -16.00477704543766 23.72532125902513 2.123595922255612
377 1 -13.24797012964045 23.72059648977415 2.123586350873337
378 1 -21.56419936442632 14.7940984975152 -5.629268642734512
379 1 -18.78636098307724 14.74958303518942 -5.629409569977374
380 1 -19.70101529763965 17.00772475721629 -4.337225139655634
381 1 -16.93286689800253 16.97776849285446 -4.337304007805038
382 1 -17.85010700524526 19.23590246830992 -3.04511421886687
383 1 -15.0881448851761 19.21951419890475 -3.045147321015359
384 1 -16.00643606757209 21.47496396983887 -1.752960269322204
385 1 -13.24793919783422 21.46921538652592 -1.752971657975222
386 1 -14.16683776367176 23.72108470488639 -0.4607865720150319
387 1 -11.41017178249061 23.72291968461217 -0.460792856061321
388 1 -12.32957209055335 25.97129315630854 0.8313931229368257
389 1 -9.573885130925895 25.97822882722782 0.8313837225874048
390 1 -10.49374052296597 28.2235816391238 2.123572681095183
391 1 -7.738631417635447 28.2338059372442 2.123557301358044
392 1 -16.00850359680556 19.2235143659682 -5.6295152432921
393 1 -13.24790105061413 19.21637165943514 -5.629529175898895
394 1 -14.16734692486108 21.46981075996188 -4.337344329406382
395 1 -11.40903895352793 21.47204567908651 -4.337351499465059
396 1 -12.32909937881431 23.72121149436092 -3.045165459328139
397 1 -9.571944676874057 23.72948881679651 -3.045176812755972
398 1 -10.49255498425479 25.9750428263378 -1.75298689156459
399 1 -7.736059410908518 25.98701731235173 -1.753005716103969
400 1 -8.657137482353358 28.22971342893891 -0.4608109406487573
401 1 -5.901113088613613 28.24383080872852 -0.4608370345092105
402 1 -10.49113591599309 23.72569345719098 -5.629546392813449
403 1 -7.732939252616853 23.73989782222535 -5.629569921177802
404 1 -8.655062609194633 25.98223718316963 -4.337372399668554
405 1 -5.897427055976177 25.99865484009172 -4.337404480654508
406 1 -6.819961731241314 28.23852760922835 -3.045201305574834
407 1 -4.062839307313482 28.25597473061425 -3.045239797124315
408 1 -4.982074493409668 28.24966435798299 -5.629599821431773
409 1 -2.223773515524186 28.26980689758398 -5.629650731815018
410 1 -43.3077570781145 -5.05239378045464 0.831014573691945
411 1 -44.16445260674333 -2.80490374218721 2.123353375886688
412 1 -41.43101163793084 -2.818179351789762 2.123336158020973
413 1 -43.35968883257808 -7.297772143010225 -3.045669586543464
414 1 -44.21752983608381 -5.047829977569777 -1.753351791658277
415 1 -41.48894941496334 -5.062054346918519 -1.753379025471089
416 1 -42.34199647011718 -2.813600354568623 -0.4610327002322543
417 1 -39.60961246184763 -2.827858593212007 -0.4610523847900754
418 1 -40.45822505392588 -0.5817120588794313 0.8313198394699139
419 1 -37.72016718298168 -0.5963780294162273 0.8313156964114177
420 1 -38.56545635099168 1.64654088810737 2.123703689706786
421 1 -35.81949465301607 1.630630398331976 2.123723148039309
422 1 -44.26815120558152 -7.292821664281961 -5.630034583325029
423 1 -41.54368377767876 -7.308304984580845 -5.630065563388914
424 1 -42.39822301143482 -5.057130596229342 -4.337744450564008
425 1 -39.67128438831578 -5.072527261880932 -4.337774683176836
426 1 -40.52021062654939 -2.822927642681688 -3.045420345691215
427 1 -37.78911470954628 -2.838330591701067 -3.045442994874917
428 1 -38.63277699446566 -0.5913070754039895 -1.753057739038114
429 1 -35.89522349985458 -0.6071417577353404 -1.753062963511442
430 1 -36.73494325757036 1.636149804123024 -0.4606587583377886
431 1 -33.98812659132641 1.618845546455885 -0.4606363679680063
432 1 -34.82672895986024 3.857423527570926 0.831760480207568
433 1 -32.06791834335128 3.836733581752246 0.8318129096253331
434 1 -32.91005102269116 6.070473109283734 2.124163013512851
435 1 -30.13788910702562 6.043722517191791 2.124227377554177
436 1 -38.69923885913695 -2.832987241882359 -5.629809873137784
437 1 -35.96973391540155 -2.849741462736149 -5.629836114768707
438 1 -36.80764567929593 -0.6016506541940916 -4.337435992239884
439 1 -34.07073115868153 -0.6188580708583792 -4.337442618923427
440 1 -34.90389587717691 1.624869751536604 -3.045019365993123
441 1 -32.15597501033555 1.605900090083171 -3.044993251612778
442 1 -32.98805095701717 3.844017031265985 -1.752580820081878
443 1 -30.22566619466928 3.820750542656503 -1.752520064865273
444 1 -31.06283959876582 6.053275255829794 -0.4601696952050436
445 1 -28.28470538254668 6.022220727615194 -0.4601025588573644
446 1 -29.13466976286124 8.251720786470859 0.832143895079025
447 1 -26.34412584636875 8.210334193368247 0.832158162837735
448 1 -27.21282928714465 10.44197759916859 2.124309900772679
449 1 -24.41796252171341 10.39173020603194 2.124228292155369
450 1 -33.07216262106426 1.612532182182034 -5.629377649278912
451 1 -30.32278129357733 1.591536111577024 -5.62934669896923
452 1 -31.14715502419814 3.828998367866648 -4.336916843335443
453 1 -28.38003174265822 3.802405527321571 -4.336846025336233
454 1 -29.21188951740455 6.033409907238838 -3.044500092543792
455 1 -26.42614516842008 5.996618148736214 -3.044434380014814
456 1 -27.27552479586636 8.22531910792325 -1.752217212364623
457 1 -24.47735199185291 8.176021101858668 -1.752236248206799
458 1 -25.35034142019401 10.40966193055846 -0.4601116221528077
459 1 -22.55146247227164 10.35224545994298 -0.4602436216025243
460 1 -23.44587557669547 12.59614162707617 0.8318756287666209
461 1 -20.65608718389318 12.54066207791569 0.8316983215426521
462 1 -21.56419936442632 14.7940984975152 2.123856291122488
463 1 -18.78636098307724 14.74958303518942 2.123715363879626
464 1 -27.35618220649565 6.010013881204617 -5.628830372753796
465 1 -24.56073152043886 5.965383072002908 -5.628775296971023
466 1 -25.41141632832637 8.19395677752378 -4.336597573846554
467 1 -22.60519187309598 8.13482729816509 -4.336669905608574
468 1 -23.48495140113969 10.37258021852487 -3.044565571258353
469 1 -20.68396264562175 10.30858004841513 -3.044749471494714
470 1 -21.58571027462723 12.55936379748212 -1.752615181453908
471 1 -18.79875137424474 12.50444656415628 -1.752794122441282
472 1 -19.71167424706245 14.763619199373 -0.4606170693469072
473 1 -16.93788547026199 14.72574131969209 -0.4607236943495763
474 1 -17.85505071277355 16.98639687266585 0.831466302017811
475 1 -15.08982732262282 16.96572016106666 0.8314222235478745
476 1 -16.00850359680556 19.2235143659682 2.1236096905649
477 1 -13.24790105061413 19.21637165943514 2.123595757958104
478 1 -21.617708371004 10.33083780081768 -5.629055332715307
479 1 -18.81784100018311 10.26317732147954 -5.62927297732769
480 1 -19.72703802916844 12.52220447849566 -4.337112271736757
481 1 -16.94500032387241 12.47325769425128 -4.337259634814026
482 1 -17.86176263875594 14.73682974539847 -3.045070492535973
483 1 -15.09204291986313 14.7100038387936 -3.045131609578831
484 1 -16.01115442012136 16.97080994738638 -1.752943484341031
485 1 -13.24785282980938 16.96170178331554 -1.752961147380567
486 1 -14.16797561483553 19.21711374430701 -0.4607765901222547
487 1 -11.40763423259857 19.21989458860467 -0.4607849527702841
488 1 -12.32852727493393 21.46996532786767 0.8314012528755517
489 1 -9.56956637699593 21.48001030027173 0.8313871601283638
490 1 -10.49113591599309 23.72569345719098 2.123578541043551
491 1 -7.732939252616853 23.73989782222535 2.123555012679198
492 1 -16.01468092757797 14.7166888969966 -5.629493807954933
493 1 -13.24778993798763 14.70468722475707 -5.629517266773313
494 1 -14.16877165776731 16.96265227460487 -4.337333064000175
495 1 -11.40584518811938 16.96620538143423 -4.337343110949879
496 1 -12.32782065048552 19.2173063138763 -3.045156537722253
497 1 -9.5665805213029 19.22974366437513 -3.045174621227458
498 1 -10.48940579688727 21.4754155743448 -1.752980956749374
499 1 -7.729073365600121 21.49251640676492 -1.753011075034393
500 1 -8.652557012011741 23.73424720255195 -0.4608095532338172
501 1 -5.892920518987495 23.75354762124307 -0.4608496476875099
502 1 -6.816853067627225 25.99251113433292 0.8313586107502775
503 1 -4.05788021405928 26.01261884619344 0.8313117285744458
504 1 -4.982074493409668 28.24966435798299 2.123525112425226
505 1 -2.223773515524186 28.26980689758398 2.123474202041982
506 1 -10.48724810458824 19.22407338579861 -5.629540593628531
507 1 -7.724157797806551 19.2450206221304 -5.629580212611089
508 1 -8.649468947501678 21.48574453416857 -4.337372697869595
509 1 -5.887290839868205 21.50871018578551 -4.337423703402578
510 1 -6.813065996388826 23.746360323483 -3.045208279282499
511 1 -4.051788777986548 23.76973130197333 -3.045266030714417
512 1 -4.977770931916853 26.00538070341752 -1.753045151208825
513 1 -2.217404710768163 26.02835139439364 -1.753106151746457
514 1 -3.143405123583561 28.2627071989959 -0.4608818298612081
515 1 -0.3839420391514583 28.28489340189984 -0.4609437646480758
516 1 -4.972494737110848 23.76136870857295 -5.629618910612734
517 1 -2.209573180512159 23.78771931429276 -5.629692429891485
518 1 -3.13775605024159 26.02029888382893 -4.33745863109659
519 1 -0.3760673266364059 26.04530825641391 -4.337531328114863
520 1 -1.30394968517075 28.27721977307063 -3.045296466985409
521 1 1.456577893260205 28.3008252774608 -3.045367043712279
522 1 0.5362382815554678 28.29277766495375 -5.629717328223443
523 1 3.29767317154405 28.31723779365839 -5.629793655314733
524 1 -43.40818344224665 -9.544815098572318 0.8307998295387575
525 1 -44.26815120558152 -7.292821664281961 2.123090350531971
526 1 -41.54368377767876 -7.308304984580845 2.123059370468085
527 1 -43.45275071546576 -11.79297604329419 -3.045826213646649
528 1 -44.31560233589619 -9.539430683492981 -1.753565761614707
529 1 -41.59435502860195 -9.556309163020039 -1.753594060280331
530 1 -42.45152478577577 -7.30292749736601 -0.4613049362279764
531 1 -39.72908302676621 -7.319806327519506 -0.4613379395210035
532 1 -40.57996071583563 -5.067180681152401 0.8309858851914615
533 1 -37.85499688085395 -5.083964045170394 0.8309522886413547
534 1 -38.69923885913695 -2.832987241882359 2.123315060719215
535 1 -35.96973391540155 -2.849741462736149 2.123288819088293
536 1 -44.35940685328625 -11.7871601412461 -5.630194075703558
537 1 -41.64045336172403 -11.80540295048196 -5.630214379380607
538 1 -42.50109309784828 -9.550434735515998 -4.337959575855449
539 1 -39.78204053560002 -9.568912050672298 -4.337987735257583
540 1 -40.63619311861 -7.313923983830766 -3.045701591836325
541 1 -37.91614206466606 -7.332463065782989 -3.045736411087351
542 1 -38.76295142312063 -5.078114113798446 -1.753410893899002
543 1 -36.04038770097527 -5.096561504892338 -1.753448212131755
544 1 -36.87926867430993 -2.843907968297153 -0.4610767422154902
545 1 -34.15175902586626 -2.862282453567231 -0.4611073721471628
546 1 -34.98291357057629 -0.6128703543307372 0.8313098177909577
547 1 -32.24682515389419 -0.6317135925855597 0.8313013383253054
548 1 -33.07216262106426 1.612532182182034 2.123747284578088
549 1 -30.32278129357733 1.591536111577024 2.123778234887769
550 1 -38.82238697345296 -7.325976692889073 -5.630099514643709
551 1 -36.10517481442953 -7.346515722409061 -5.630135661828864
552 1 -36.94746054600368 -5.090103162877751 -4.337810098224781
553 1 -34.22784677094186 -5.110580545681955 -4.337851424247504
554 1 -35.06054899973814 -2.855856483845286 -3.045471318943513
555 1 -32.33558581446322 -2.876210549571605 -3.045507347245782
556 1 -33.15869442709307 -0.6251296516933618 -1.753070449841119
557 1 -30.4237001513454 -0.6459563524952507 -1.753081432894211
558 1 -31.23952878202676 1.598914860265714 -0.4606080004570858
559 1 -28.48815955900076 1.575397284150784 -0.4605706030675421
560 1 -29.30333781529442 3.811916376135408 0.8318784663642074
561 1 -26.52977372584839 3.780876870545494 0.8319611604026764
562 1 -27.35618220649565 6.010013881204617 2.124294561103204
563 1 -24.56073152043886 5.965383072002908 2.124349636885977
564 1 -33.24341703805662 -2.869053691153334 -5.629869302295784
565 1 -30.52176976414875 -2.891882041050019 -5.629912000806883
566 1 -31.33514967709775 -0.6386429454012932 -4.337452252422388
567 1 -28.60164745582835 -0.6619263745475529 -4.337466710846781
568 1 -29.40568002512515 1.583716008645698 -3.044959320375539
569 1 -26.65150797022548 1.556970591039745 -3.044913052907619
570 1 -27.45557942597894 3.792105954548458 -1.752443522603673
571 1 -24.67301398170445 3.754859808967492 -1.752347800831721
572 1 -25.49439916569369 5.981825407738359 -0.4600405500202225
573 1 -22.68674764362397 5.926275363988986 -0.4600149507222495
574 1 -23.5419263956868 8.156360912285122 0.8321152892837935
575 1 -20.72846481971201 8.085836487061499 0.8319675470774486
576 1 -21.617708371004 10.33083780081768 2.124069601141692
577 1 -18.81784100018311 10.26317732147954 2.12385195652931
578 1 -27.57013738553776 1.56651055317197 -5.629305238144167
579 1 -24.81183465447499 1.53547678602326 -5.629246293046906
580 1 -25.60235830618151 3.768538856619338 -4.336756859223478
581 1 -22.80684069844947 3.722156546788663 -4.336650054957693
582 1 -23.62491966395589 5.946986719258353 -3.044390833548481
583 1 -20.80270438901549 5.87622096161709 -3.044429957925638
584 1 -21.66728642328465 8.111319743820466 -1.752343792303668
585 1 -18.84983841436193 8.029912495635383 -1.752575427317148
586 1 -19.7505531834262 10.28584248387707 -0.4604483635231522
587 1 -16.95585523228138 10.22128075675642 -0.4606539264070533
588 1 -17.87137745108463 12.48792971855103 0.8315308731797983
589 1 -15.09509742534981 12.4519091466765 0.8314419779137427
590 1 -16.01468092757797 14.7166888969966 2.123631125902067
591 1 -13.24778993798763 14.70468722475707 2.123607667083687
592 1 -21.74603751772051 5.902834878917897 -5.628776370304864
593 1 -18.90886987350691 5.812010906034349 -5.628933871401722
594 1 -19.78912808334847 8.058550351667744 -4.336860526510889
595 1 -16.97425950904601 7.972497014082224 -4.337137840640295
596 1 -17.88617974483363 10.24133994282051 -3.044968348430382
597 1 -15.09958973664369 10.19088555465034 -3.045104879412552
598 1 -16.01961226228155 12.46105505092946 -1.752914259663252
599 1 -13.24770447806333 12.44455148971901 -1.752947407081394
600 1 -14.1698124233453 14.7059479147923 -0.4607636448603567
601 1 -11.40348669789741 14.7106434979282 -0.4607762237490745
602 1 -12.32692554806876 16.96289876652677 0.8314111273332447
603 1 -9.562716134600098 16.97868058132439 0.8313869627564021
604 1 -10.48724810458824 19.22407338579861 2.123584340228469
605 1 -7.724157797806551 19.2450206221304 2.12354472124591
606 1 -16.0270125806317 10.20409009056607 -5.629450076895446
607 1 -13.24758164559704 10.18005436282393 -5.62950102259875
608 1 -14.17123193571465 12.44630298262525 -4.337317812338932
609 1 -11.40023019628413 12.45278932239869 -4.337334525775921
610 1 -12.3257545524638 14.70627453655317 -3.045145503148872
611 1 -9.557513036942018 14.72692052538628 -3.045179444595259
612 1 -10.48447906417444 16.97151901170117 -1.752975735060128
613 1 -7.717702507360674 16.99770452248163 -1.753029490497825
614 1 -8.64556594834365 19.23677651989944 -0.4608127112990339
615 1 -5.880074195927836 19.26447311355307 -0.4608788210052825
616 1 -6.808352173102175 21.50021203753466 0.8313468975556191
617 1 -4.044150594953667 21.52761849306691 0.8312749790905543
618 1 -4.972494737110848 23.76136870857295 2.123506023244266
619 1 -2.209573180512159 23.78771931429276 2.123432503965516
620 1 -10.48079066655647 14.71761590138198 -5.629536897373303
621 1 -7.708872343262064 14.75114019636827 -5.629612402637093
622 1 -8.640473989764027 16.98748678507148 -4.33738080753524
623 1 -5.870531408813294 17.02138103140526 -4.337468109815299
624 1 -6.802329526185645 19.25431023912241 -3.045227342710618
625 1 -4.034341466123173 19.28673857150586 -3.045317734678815
626 1 -4.965887253229376 21.51788669735623 -1.75307281427735
627 1 -2.1997616287727 21.54828042288852 -1.753161738979274
628 1 -3.130810232507761 23.77854420527759 -0.4609156735011968
629 1 -0.3664055885918884 23.80682841541465 -0.461001016398626
630 1 -1.29683695609755 26.03670917366717 0.8312444947308097
631 1 1.466004954935087 26.06299514153654 0.8311635655499654
632 1 0.5362382815554678 28.29277766495375 2.123407605633557
633 1 3.29767317154405 28.31723779365839 2.123331278542266
634 1 -4.957402765271572 19.27533758906018 -5.62965912083394
635 1 -2.187211498742943 19.31054856207512 -5.629766598718248
636 1 -3.122099778913526 21.53778692664265 -4.337504796195909
637 1 -0.3543587099747665 21.56984238340117 -4.337604589408564
638 1 -1.288097077941515 23.79717322175886 -3.045346039339884
639 1 1.477514706860719 23.82646660158718 -3.045438318826519
640 1 0.5448866012386606 26.05408870024729 -1.753183434763829
641 1 3.308648140400662 26.0809893551643 -1.753268781768913
642 1 2.377061660936031 28.30899217899603 -0.4610175920018975
643 1 5.139209986841195 28.33382104529202 -0.4610966966948313
644 1 0.5554745692923326 23.81661408856572 -5.629781869927049
645 1 3.321956034899626 23.84615415520915 -5.629876219867911
646 1 2.387266270566821 26.07197714252159 -4.337614941213865
647 1 5.151682560816099 26.09894840395447 -4.337701089641497
648 1 4.218395175537022 28.32552517411151 -3.045445122336183
649 1 6.981047168245404 28.35032321388434 -3.045524269964944
650 1 6.060099835228664 28.34209576443384 -5.629873099389956
651 1 8.823046625509317 28.36654846805525 -5.62994998871653
652 1 -43.49316051166194 -14.04172485003695 0.8307000967496609
653 1 -44.35940685328625 -11.7871601412461 2.122930858153441
654 1 -41.64045336172403 -11.80540295048196 2.122910554476392
655 1 -43.52940324217602 -16.29059465604137 -3.045875035266247
656 1 -44.39932153745243 -14.03552097984287 -1.753671199681532
657 1 -41.68179300939465 -14.05496381842397 -1.753680016832034
658 1 -42.5464262775206 -11.79905025286327 -0.4614580352031634
659 1 -39.82964646030343 -11.81903452651407 -0.4614754990221861
660 1 -40.68799491773972 -9.562460168356687 0.8307715050829492
661 1 -37.971471162295 -9.582830233943346 0.8307444491762086
662 1 -38.82238697345296 -7.325976692889073 2.123025419213291
663 1 -36.10517481442953 -7.346515722409061 2.122989272028136
664 1 -44.43530526250594 -16.28407471190575 -5.630250354139018
665 1 -41.7184494416178 -16.30446578283578 -5.630246138479505
666 1 -42.58731288710038 -14.04819946677848 -4.338052839675346
667 1 -39.871794178671 -14.06944488290905 -4.338056246449027
668 1 -40.73485281661775 -11.81205627863361 -3.045845266576527
669 1 -38.02050776017307 -11.8340748033987 -3.045858289897729
670 1 -38.87652185795639 -9.575691952738973 -1.753621816142755
671 1 -36.16291463194125 -9.598321990045735 -1.753646286935944
672 1 -37.01038945845822 -7.339297290549689 -0.4613735077114907
673 1 -34.29656740455347 -7.362277965130271 -0.4614100192812316
674 1 -35.13383004309431 -5.1033738214749 0.8309129937124
675 1 -32.41788562561935 -5.12637494942893 0.8308675807971926
676 1 -33.24341703805662 -2.869053691153334 2.123255631561215
677 1 -30.52176976414875 -2.891882041050019 2.123212933050116
678 1 -38.92485697822072 -11.82636431909511 -5.630229856191659
679 1 -36.21322563414018 -11.85076804983082 -5.630236248419306
680 1 -37.06692308697368 -9.590360885956478 -4.338013724498182
681 1 -34.35667573706793 -9.615711313275145 -4.338033372160109
682 1 -35.20054876679473 -7.354160000923867 -3.04577290125647
683 1 -32.49079304852938 -7.3801639551881 -3.045808016525523
684 1 -33.32250586954711 -5.11822900595101 -1.753491593114775
685 1 -30.61118269629668 -5.144436422710108 -1.75354068612964
686 1 -31.42834014602884 -2.883800892931903 -0.4611465586972916
687 1 -28.71111239796469 -2.909809783935204 -0.4611974830507231
688 1 -29.51251624342279 -0.6536993946182379 0.8312887659935444
689 1 -26.78112323649983 -0.6801082717527416 0.8312693219128131
690 1 -27.57013738553776 1.56651055317197 2.123819695712833
691 1 -24.81183465447499 1.53547678602326 2.123878640810094
692 1 -33.39329273008344 -7.370924731633741 -5.630171762623435
693 1 -30.68842459689917 -7.400726009666614 -5.630202398408208
694 1 -31.51407640251989 -5.135084465223847 -4.337898775762394
695 1 -28.80864473876706 -5.165466486204823 -4.33795008586039
696 1 -29.6159831325209 -2.900523362819479 -3.045553947625986
697 1 -26.90480682074447 -2.93076620926434 -3.045614844127559
698 1 -27.69115636680261 -0.6707027183360273 -1.753098148893703
699 1 -24.96288372660745 -0.7012282891452549 -1.753125043253649
700 1 -25.73213418644495 1.546671053551475 -0.4605185932753297
701 1 -22.96738553853991 1.509643647277062 -0.4604406739840925
702 1 -23.74134148930769 3.739534738897621 0.8320630538088318
703 1 -20.92671884937837 3.678831495185263 0.8321682461165805
704 1 -21.74603751772051 5.902834878917897 2.124348563552136
705 1 -18.90886987350691 5.812010906034349 2.124191062455278
706 1 -27.80731990428445 -2.919846602974367 -5.629967691988917
707 1 -25.10469043121368 -2.95598016323944 -5.630040002485844
708 1 -25.87165269907828 -0.6902419275217574 -4.337489486854202
709 1 -23.1482784453848 -0.7264507209244226 -4.337528103456608
710 1 -23.89036453702673 1.523212271176477 -3.04484563085509
711 1 -21.11475681175644 1.477171195575844 -3.044737741225242
712 1 -21.86888804809826 3.702173849292469 -1.752238944544313
713 1 -19.02607461535424 3.617556211665828 -1.752181648379158
714 1 -19.85684551438698 5.846023563946981 -0.4601059438181967
715 1 -17.01064761285617 5.734360005043907 -0.4604177195856509
716 1 -17.91129746510262 8.000774746677733 0.8317039498532035
717 1 -15.10687734318389 7.926472078227476 0.8314828443140032
718 1 -16.0270125806317 10.20409009056607 2.123674856961554
719 1 -13.24758164559704 10.18005436282393 2.12362391125825
720 1 -22.04241744485973 1.494449521808552 -5.62915519240276
721 1 -19.2464542522811 1.433215534165343 -5.628997496864004
722 1 -19.97943336130395 3.651092457394806 -4.336559242700366
723 1 -17.09897605244725 3.525948958239427 -4.336681279852981
724 1 -17.95965338676443 5.77440827181988 -3.044665050222235
725 1 -15.12081903009489 5.659483844135052 -3.045027697261695
726 1 -16.03935974298689 7.946971655444066 -1.752839620449196
727 1 -13.24739006261792 7.909028660701527 -1.752927524908033
728 1 -14.17328475983385 10.18264999319046 -0.4607449950552935
729 1 -11.39542976182613 10.19216865326689 -0.4607692644797288
730 1 -12.32415592983972 12.44675607008071 0.8314235818608124
731 1 -9.550126208885635 12.47483220208985 0.8313728767442845
732 1 -10.48079066655647 14.71761590138198 2.123588036483698
733 1 -7.708872343262064 14.75114019636827 2.123512531219907
734 1 -16.06376825058696 5.694525941967901 -5.629298063634794
735 1 -13.24704956809745 5.62713943969918 -5.629475345419005
736 1 -14.17652248289328 7.913262712514728 -4.337293552827534
737 1 -11.38761465705451 7.92850008339152 -4.337333995733018
738 1 -12.32184058926773 10.18331968165714 -3.045131344113275
739 1 -9.538839895632927 10.22346460462108 -3.045213077048767
740 1 -10.47562432010292 12.46231418396843 -1.752975700954261
741 1 -7.696148074684353 12.50643791889754 -1.753085747704382
742 1 -8.633554255425485 14.73821989101992 -0.4608296588003375
743 1 -5.857432901351787 14.78033347587894 -0.4609468397397831
744 1 -6.794384153248757 17.00908572822609 0.8313161793072388
745 1 -4.021393706942961 17.04777532854856 0.8312019738149841
746 1 -4.957402765271572 19.27533758906018 2.123465813023059
747 1 -2.187211498742943 19.31054856207512 2.123358335138752
748 1 -10.46785432604855 10.2058861360504 -5.62954572366451
749 1 -7.676552153096012 10.26575968692556 -5.629711649436931
750 1 -8.623632824093022 12.4897483964357 -4.337414153507243
751 1 -5.838639775574014 12.5428095522198 -4.33757271900422
752 1 -6.783479414448536 14.76529988574408 -3.045276953066958
753 1 -4.003764707629152 14.81173773865511 -3.045420724182575
754 1 -4.946182124401233 17.03435113378969 -1.753131566027847
755 1 -2.170790389588417 17.07522681849994 -1.753260326488562
756 1 -3.110928655885886 19.29852211007931 -0.4609788472134928
757 1 -0.339077952908422 19.33485314687016 -0.4610942684900847
758 1 -1.277168960910313 21.55899638069492 0.8311797847812064
759 1 1.49175637051632 21.59160887157667 0.8310757703166984
760 1 0.5554745692923326 23.81661408856572 2.12334306392995
761 1 3.321956034899626 23.84615415520915 2.123248713989089
762 1 -4.930823876697742 14.79590885154695 -5.629745302813574
763 1 -2.148785907748815 14.84324410380454 -5.629895890220369
764 1 -3.096236981903582 17.061457064171 -4.337591272497368
765 1 -0.3193502341396339 17.10248976653504 -4.337721734830878
766 1 -1.263242764903605 19.32269444237275 -3.045430338226994
767 1 1.509618368349521 19.3588653348531 -3.045545130286997
768 1 0.5686297999034089 21.58073679862185 -1.753264449516387
769 1 3.338265868388749 21.61305525928326 -1.753366779662144
770 1 2.399685140306897 23.83632964441364 -0.4610949086772926
771 1 5.166683183512339 23.86552581769505 -0.4611871313078018
772 1 4.230127787716235 26.08999153060703 0.8310773941602807
773 1 6.994929884021804 26.11660876739415 0.8309935138015938
774 1 6.060099835228664 28.34209576443384 2.123251834467045
775 1 8.823046625509317 28.36654846805525 2.12317494514047
776 1 0.5852271427909983 19.34693478155754 -5.62988267290624
777 1 3.358459013723271 19.38204871503698 -5.629990240165908
778 1 2.414981195692729 21.60239842306724 -4.337708421540389
779 1 5.184872443428764 21.63381513221757 -4.337804551363398
780 1 4.24429810692642 23.8558980504135 -3.045532072219922
781 1 7.01147764225237 23.88432073071081 -3.045618953613831
782 1 6.073290343525461 26.10782948303228 -1.753354137444222
783 1 8.838224996376024 26.13377841577271 -1.753433388032623
784 1 7.90203490241233 28.3584806422604 -0.4611749712951592
785 1 10.66508064393987 28.3823514912152 -0.4612478196463523
786 1 6.089084627820275 23.87500801736844 -5.62996610758933
787 1 8.856149477093519 23.90236618770571 -5.630045473191171
788 1 7.916581046999598 26.12526442066697 -4.337782904087017
789 1 10.68142308348398 26.15032617524205 -4.33785588889552
790 1 9.744066753156158 28.37451005807361 -3.045599328368262
791 1 12.50703630283353 28.3976303106971 -3.045666874318504
792 1 11.58607467782193 28.39006131627709 -5.630020312486696
793 1 14.34881755588784 28.41231866088453 -5.630081766151614
794 1 -43.56163594001225 -18.53920773089876 0.8306934723873607
795 1 -44.43530526250594 -16.28407471190575 2.122874579717982
796 1 -41.7184494416178 -16.30446578283578 2.122878795377495
797 1 -43.59012684655064 -20.78728286135953 -3.045849085948128
798 1 -44.46747393334982 -18.53245875705365 -1.753685945015186
799 1 -41.75068267219594 -18.55350448722116 -1.753668802810218
800 1 -42.62378179199222 -16.29738623574758 -0.461498696373847
801 1 -39.90868273953726 -16.31955788021913 -0.4614871032084293
802 1 -40.77661532242729 -14.06203832480579 0.8306937724484591
803 1 -38.06327692073214 -14.08534919680604 0.8306976973567295
804 1 -38.92485697822072 -11.82636431909511 2.122895077665341
805 1 -36.21322563414018 -11.85076804983082 2.122888685437695
806 1 -44.49605241528265 -20.78039571344589 -5.630232296407048
807 1 -41.77886432081084 -20.80179821966732 -5.630203499740809
808 1 -42.6560377692376 -18.54621871870877 -4.338050810076109
809 1 -39.94070897390588 -18.56895186181296 -4.338025137685297
810 1 -40.813414086785 -16.31185040037855 -3.045867348679024
811 1 -38.10015383597308 -16.3360151982225 -3.045846489125297
812 1 -38.9673435920879 -14.07720688510702 -1.753680026849553
813 1 -36.25634295909756 -14.10288101078884 -1.753666364657728
814 1 -37.11662265724983 -11.84219782095365 -0.4614855238596909
815 1 -34.40798918461627 -11.86940346956031 -0.4614823375113153
816 1 -35.25948507135501 -9.606756210711008 0.8307220512006903
817 1 -32.55309069265421 -9.63540379577201 0.8307105506265331
818 1 -33.39329273008344 -7.370924731633741 2.122953171233564
819 1 -30.68842459689917 -7.400726009666614 2.122922535448792
820 1 -39.00426122763184 -16.32760657323747 -5.63023016621746
821 1 -36.29288822628435 -16.35398723843101 -5.630197882280698
822 1 -37.1596064642101 -14.09389807590641 -4.338047785818209
823 1 -34.45106804343168 -14.12226335854063 -4.338021464182274
824 1 -35.31034028633088 -11.85982309183188 -3.045860315306603
825 1 -32.6049693679711 -11.89031585711046 -3.045843684067925
826 1 -33.45452961699549 -9.62524068176889 -1.753662359970347
827 1 -30.75250868718241 -9.657901640705219 -1.753660882067686
828 1 -31.58914321169827 -7.390069284475038 -0.4614433910410574
829 1 -28.89013562446741 -7.424703890658526 -0.4614643069025439
830 1 -29.7093254726884 -5.154525571606833 0.8308170949649054
831 1 -27.01148377240892 -5.190492350419331 0.8307672492397618
832 1 -27.80731990428445 -2.919846602974367 2.123157241868083
833 1 -25.10469043121368 -2.95598016323944 2.123084931371156
834 1 -33.50619300171852 -11.8795524832427 -5.630226885331979
835 1 -30.80428581429393 -11.91387629900532 -5.630191941103418
836 1 -31.65240291508398 -9.646266597677799 -4.338039099881511
837 1 -28.95524880295567 -9.683809614316639 -4.338017852625841
838 1 -29.78872463704852 -7.41223286542861 -3.045834625641825
839 1 -27.09666816702843 -7.453080790978926 -3.045837183466972
840 1 -27.90930221150355 -5.17739856977288 -1.753591934706033
841 1 -25.22129113738456 -5.221050875201904 -1.753632078135575
842 1 -26.00382462814875 -2.942737609178659 -0.4612639690582452
843 1 -23.31369056820813 -2.987538558971278 -0.4613470053676099
844 1 -24.05500488416556 -0.7132275575562639 0.8312372681308466
845 1 -21.33996598516946 -0.7578292182537082 0.8311789530887781
846 1 -22.04241744485973 1.494449521808552 2.12396974145424
847 1 -19.2464542522811 1.433215534165343 2.124127436992996
848 1 -27.99275237669208 -7.438270133336272 -5.630215486993387
849 1 -25.30871866195483 -7.487119250726175 -5.630186105616469
850 1 -26.1154010795011 -5.204957257116365 -4.337996536926679
851 1 -23.44002812300501 -5.25945573629254 -4.338009710116896
852 1 -24.20780726812352 -2.970783720795799 -3.045692888388064
853 1 -21.5365813636101 -3.029257385879317 -3.045777598365216
854 1 -22.24307995300783 -0.7411838819396754 -1.753172152770667
855 1 -19.54396785399981 -0.7995536888666336 -1.753266386679394
856 1 -20.1833345403019 1.457122613779223 -0.460311123213291
857 1 -17.34286263457073 1.364755688958099 -0.4600743795991882
858 1 -18.06588813665959 3.576449104035961 0.8321598908539165
859 1 -15.15753019395666 3.399905396639793 0.8316908760115431
860 1 -16.06376825058696 5.694525941967901 2.123826870222206
861 1 -13.24704956809745 5.62713943969918 2.123649588437995
862 1 -22.42300108265373 -3.006780324774622 -5.630126040876779
863 1 -19.7809431365901 -3.088594895222942 -5.630174428495758
864 1 -20.43979631186366 -0.7769782996015842 -4.337601522191198
865 1 -17.77709378525872 -0.8625578033657484 -4.337765981385703
866 1 -18.3012875311623 1.403590236743827 -3.04454391060311
867 1 -15.34352511632056 1.220654529793443 -3.044338681106617
868 1 -16.12758139184265 3.465568160974949 -1.752471098925862
869 1 -13.24627609879164 3.323464239868467 -1.752891021394979
870 1 -14.18241436050728 5.635223933972402 -0.4607093458520759
871 1 -11.37258538690962 5.663086099149417 -0.4607933784353646
872 1 -12.31817902517447 7.914349539231866 0.8314395297843824
873 1 -9.519687692015964 7.975651405680772 0.8312952565612732
874 1 -10.46785432604855 10.2058861360504 2.12357921019249
875 1 -7.676552153096012 10.26575968692556 2.123413284420069
876 1 -16.36209777391042 1.309384788631861 -5.628727583100591
877 1 -13.24279750020757 0.9513112871731946 -5.62940935753589
878 1 -14.19668794114152 3.344384900771365 -4.33722198248477
879 1 -11.33285191936533 3.407357132801117 -4.337470729673148
880 1 -12.31148001644402 5.637274180200659 -3.045115210760871
881 1 -9.481892896590784 5.739024951360953 -3.045394101880341
882 1 -10.45485672337946 7.94969820832216 -1.753007420668826
883 1 -7.6437744572875 8.03325403401438 -1.753260761303606
884 1 -8.608350824431271 10.24378207111094 -0.4608947600378706
885 1 -5.810274897551182 10.31117445957128 -0.4611062343455496
886 1 -6.767765044876015 12.52430242745739 0.831235440913799
887 1 -3.978938656821262 12.58006556582661 0.8310585149824103
888 1 -4.930823876697742 14.79590885154695 2.123379631043426
889 1 -2.148785907748815 14.84324410380454 2.123229043636631
890 1 -10.42911912950749 5.698969965261637 -5.629643082961185
891 1 -7.583634690792949 5.816118418965974 -5.630001552514422
892 1 -8.582440192429168 8.004114891428143 -4.337542671508601
893 1 -5.765142756942298 8.088866295001068 -4.337803877427501
894 1 -6.743741102120978 10.28846771458348 -3.045408783791863
895 1 -3.942776031024774 10.35464321401328 -3.045612723060253
896 1 -4.908963555087885 12.56151435996228 -1.753257542901712
897 1 -2.118603181332885 12.6157365105721 -1.753424396664927
898 1 -3.076377724983161 14.82758014174238 -0.461096407688999
899 1 -0.2934437718932479 14.87348670068287 -0.4612374395181944
900 1 -1.245134952195249 17.08894276144395 0.8310708799332882
901 1 1.532313076953336 17.12873676540323 0.8309488127655609
902 1 0.5852271427909983 19.34693478155754 2.123242260950759
903 1 3.358459013723271 19.38204871503698 2.123134693691092
904 1 -4.876512411100265 10.33335010510212 -5.629925052120161
905 1 -2.076387218118343 10.39385586284724 -5.63008935636504
906 1 -3.048759999002584 12.59820095395278 -4.337747521308055
907 1 -0.2589268537944687 12.64858174403088 -4.337887411660246
908 1 -1.221105967758643 14.85858228401853 -3.045568194207809
909 1 1.561471969795713 14.90172289206538 -3.0456897654487
910 1 0.6064886540121819 17.11577731552596 -1.75338761829805
911 1 3.383682798169536 17.1534881590504 -1.753495007527306
912 1 2.434044655168544 19.37058541174379 -0.4612061242440886
913 1 5.207087696441494 19.40407555324336 -0.4613022394560369
914 1 4.261574138404931 21.62353838944065 0.8309760730891718
915 1 7.031320191475995 21.65365463963848 0.8308891208291767
916 1 6.089084627820275 23.87500801736844 2.12315882626767
917 1 8.856149477093519 23.90236618770571 2.12307946066583
918 1 0.6341082244738683 14.88788269963118 -5.630028020377601
919 1 3.415392944096787 14.92764952302462 -5.630126179906135
920 1 2.458062059079515 17.14131834667172 -4.337837014279281
921 1 5.234368907600231 17.17651950518911 -4.337926883889566
922 1 4.282819138722846 19.39322042033351 -3.04564735683296
923 1 7.055225690435515 19.42477630263532 -3.045729915200981
924 1 6.108130243430002 21.64386017567467 -1.753458600624625
925 1 8.877403249232382 21.67244312648843 -1.753534776340073
926 1 7.933839465075341 23.89344498620868 -0.4612704645681764
927 1 10.70054244537767 23.91955963861191 -0.4613410729093241
928 1 9.75984431689009 26.14213616896819 0.8309172348584748
929 1 12.5244028259717 26.16617021533765 0.8308514980268735
930 1 11.58607467782193 28.39006131627709 2.123104621370303
931 1 14.34881755588784 28.41231866088453 2.123043167705386
932 1 6.131232364732735 19.41459744349576 -5.630079726353141
933 1 8.902671149119211 19.44409269808573 -5.630148230945871
934 1 7.954418173743093 21.66318517549136 -4.337886240060655
935 1 10.72296592744818 21.69012559376363 -4.337951120292722
936 1 9.77838923478628 23.91107356207582 -3.04569404414872
937 1 12.54453436093021 23.93585168402427 -3.045755404938562
938 1 11.60294688720693 26.15833965449765 -1.75350283503027
939 1 14.36706679263327 26.18126709970482 -1.753560879699486
940 1 13.42795405495301 28.40505124557138 -0.4613123915361819
941 1 16.19034558570758 28.4263786810692 -0.4613673581479285
942 1 11.62259489769554 23.92781976785146 -5.630111479917916
943 1 14.38803454611148 23.95123142253668 -5.630163656427588
944 1 13.44577946770481 26.17381354093046 -4.337917806537025
945 1 16.20934002742677 26.19560216368252 -4.337968125844293
946 1 15.26961749305806 28.41942865369988 -3.045725112408292
947 1 -43.61520690031608 -23.03462957935634 0.8307427870171862
948 1 -44.49605241528265 -20.78039571344589 2.122892637449952
949 1 -41.77886432081084 -20.80179821966732 2.122921434116191
950 1 -43.63723192600784 -25.28113493909995 -3.045784420909122
951 1 -44.5213310456097 -23.02769059748139 -1.753643674906478
952 1 -41.80341817119101 -23.04917378251224 -1.75360516006459
953 1 -42.68439782082915 -20.79441407658566 -0.4614645416043661
954 1 -39.96837310204458 -20.81735838083504 -0.461426867210065
955 1 -40.84557280362858 -18.56107792370659 0.8307146883180978
956 1 -38.13171421770124 -18.58565088002791 0.8307504723995467
957 1 -39.00426122763184 -16.32760657323747 2.122894767639539
958 1 -36.29288822628435 -16.35398723843101 2.122927051576302
959 1 -44.54363059318072 -25.27422074229744 -5.630173483903438
960 1 -41.82477720404845 -25.29554541162647 -5.630127437609753
961 1 -42.70923731987333 -23.04178895168698 -4.337994352819786
962 1 -39.9922079075381 -23.06463573837827 -4.337947274485281
963 1 -40.87352402541516 -20.80944372548063 -3.0458159953411
964 1 -38.15861511665344 -20.83402136331174 -3.045768320878523
965 1 -39.0360903662653 -18.57713885414436 -1.753638277187948
966 1 -36.32366634606982 -18.60369276854641 -1.753590767931886
967 1 -37.1963628830898 -16.34480257185437 -0.4614608154994027
968 1 -34.48687142058655 -16.37361813201298 -0.4614147736529719
969 1 -35.35349495380792 -14.11232644633391 0.8307172923439621
970 1 -32.64747940172047 -14.14372614552229 0.8307596562961983
971 1 -33.50619300171852 -11.8795524832427 2.122898048525021
972 1 -30.80428581429393 -11.91387629900532 2.122932992753582
973 1 -39.06340598134001 -20.82554905323935 -5.630160959005219
974 1 -36.3495205652794 -20.85182472152255 -5.630102326300234
975 1 -37.22757546334483 -18.59449897520692 -4.337983689189476
976 1 -34.51648998789463 -18.62314536869459 -4.337922978580704
977 1 -35.38972669072513 -16.36358697363667 -3.04580762236831
978 1 -32.68202943980339 -16.39502773789626 -3.04574552751159
979 1 -33.54906394565097 -14.13272062746982 -1.753632467228209
980 1 -30.84552317909405 -14.16748072498082 -1.753570454961361
981 1 -31.70433139642221 -11.90174107856886 -0.4614572191897885
982 1 -29.00595237253457 -11.94046155461114 -0.4613982523647904
983 1 -29.85344668396867 -9.67038784679354 0.8307209268739708
984 1 -27.16151276669511 -9.713811636040392 0.830770941808687
985 1 -27.99275237669208 -7.438270133336272 2.122909446863613
986 1 -25.30871866195483 -7.487119250726175 2.122938828240532
987 1 -33.58431115513494 -16.38409480318462 -5.630144085459714
988 1 -30.87820486195771 -16.41828032085558 -5.630064081217709
989 1 -31.74630489337765 -14.15530558384802 -4.337969723765322
990 1 -29.04502073054134 -14.19367191366825 -4.337884798805345
991 1 -29.90483064140993 -11.92676862212123 -3.045797476305663
992 1 -27.2097945523025 -11.97038182904002 -3.045708654450417
993 1 -28.05793600201698 -9.698254888805861 -1.753626507583744
994 1 -25.37122610916075 -9.748572605257486 -1.75353710921653
995 1 -26.20196807974847 -7.469303040080588 -0.4614529586618186
996 1 -23.52664603754335 -7.528285138655677 -0.46137220513745
997 1 -24.32941162853035 -5.239089150859413 0.830737613241227
998 1 -21.66966086312177 -5.309053776598128 0.8307848847840071
999 1 -22.42300108265373 -3.006780324774622 2.122998892980221
1000 1 -19.7809431365901 -3.088594895222942 2.122950505361241
1001 1 -28.1076226584902 -11.95499133811206 -5.630118730558865
1002 1 -25.41533849812641 -12.0037346487 -5.629995875758718
1003 1 -26.26595998149004 -9.73056193079162 -4.337949504212706
1004 1 -23.58378432686154 -9.788475251956607 -4.337811276735183
1005 1 -24.41695247216914 -7.50671939647677 -3.045784877237901
1006 1 -21.74985365631608 -7.577800000949501 -3.045630653166926
1007 1 -22.55338659636622 -5.282605817040109 -1.753620537708918
1008 1 -19.9106846464527 -5.373810221575144 -1.753458901215867
1009 1 -20.65548287990807 -3.056028987506171 -0.4614217439208672
1010 1 -18.05588767354568 -3.179775103537894 -0.4613104665082071
1011 1 -18.65489626241498 -0.8271100024074856 0.8310554911327663
1012 1 -16.10342080985643 -0.9925507268057316 0.8308160875139725
1013 1 -16.36209777391042 1.309384788631861 2.124397350756409
1014 1 -13.24279750020757 0.9513112871731946 2.123715576321111
1015 1 -22.63769020660808 -7.551960248804302 -5.63007116200543
1016 1 -19.97578355626331 -7.635235430574584 -5.629834248811926
1017 1 -20.78886047426377 -5.339322327313047 -4.337912904938564
1018 1 -18.15827921819424 -5.454474720243942 -4.3375950352924
1019 1 -18.91420147063847 -3.129012119214606 -3.045770201998486
1020 1 -16.35407240595475 -3.314555529154956 -3.0452963618714
1021 1 -16.91979618880476 -0.9121992300214132 -1.753483071826761
1022 1 -14.62664192937422 -1.325884752292382 -1.752828345562039
1023 1 -14.27946493948069 1.069520217560518 -0.4603123581919402
1024 1 -11.13843353108551 1.2334914518217 -0.4613625617586208
1025 1 -12.29504864845783 3.349478823635338 0.8314391583782847
1026 1 -9.39113524821907 3.532280242674985 0.8309076360415508
1027 1 -10.42911912950749 5.698969965261637 2.123481850895814
1028 1 -7.583634690792949 5.816118418965974 2.123123381342578
1029 1 -17.20451689931762 -3.242663210484665 -5.629897119697833
1030 1 -14.62146825038133 -3.404023274333523 -5.629447546104725
1031 1 -15.36360081420485 -1.151322793168158 -4.33769655106479
1032 1 -13.14951543709562 -0.9806573319284652 -4.336513629853044
1033 1 -12.19878921468932 1.090205316693118 -3.045414185611176
1034 1 -9.147609165726656 1.369874470780809 -3.045676701916003
1035 1 -10.36223559522809 3.472948510283638 -1.753303194824678
1036 1 -7.465557468486103 3.621764998959979 -1.753608364504053
1037 1 -8.532771131330088 5.778893168042795 -0.4611446073839076
1038 1 -5.690286482410674 5.879459378852588 -0.4613899486681574
1039 1 -6.704445798771374 8.061771000748708 0.8310251527721917
1040 1 -3.888627976352009 8.137404704579039 0.8308271909154084
1041 1 -4.876512411100265 10.33335010510212 2.12319988173684
1042 1 -2.076387218118343 10.39385586284724 2.12303557749196
1043 1 -10.12514322196316 1.31700567284067 -5.630119274760887
1044 1 -7.24705745753156 1.43621303767948 -5.629924196859315
1045 1 -8.424938326085279 3.581627402612973 -4.337939538417899
1046 1 -5.566296117703303 3.681719177842721 -4.337983034594984
1047 1 -6.635868253540814 5.849691430239041 -3.045708186569782
1048 1 -3.806843433411238 5.928789643347449 -3.045820031737303
1049 1 -4.826409151548489 8.114126849422018 -1.753495084811663
1050 1 -2.01676868124509 8.178169918475872 -1.753616730950499
1051 1 -3.009332409001949 10.37484556755597 -0.4612926977226786
1052 1 -0.2125349822539935 10.4282447000291 -0.4614088901640563
1053 1 -1.18861810592148 12.63255289769848 0.8309038127100761
1054 1 1.599218732845166 12.67818531233972 0.8307965678880966
1055 1 0.6341082244738683 14.88788269963118 2.123096913479398
1056 1 3.415392944096787 14.92764952302462 2.122998753950865
1057 1 -4.747254723398129 5.905685657389827 -5.630175631175518
1058 1 -1.933399455985285 5.967368571408549 -5.630201027000987
1059 1 -2.952038951435251 8.158716319457394 -4.337962805150313
1060 1 -0.1503055802170987 8.212126538420138 -4.338023102451135
1061 1 -1.144088598011972 10.4116478172124 -3.045752935947873
1062 1 1.648136509597686 10.4580853423336 -3.045825930707055
1063 1 0.6703755611406006 12.6637931861344 -1.753548126512416
1064 1 3.455348819062896 12.70459459934685 -1.753624141285425
1065 1 2.488583677276964 14.91498152436174 -0.4613474960417587
1066 1 5.267961401798791 14.95123633538802 -0.4614223700786151
1067 1 4.309130674803157 17.1652253396267 0.8308500083494348
1068 1 7.0841049358195 17.19777656957862 0.8307780041681334
1069 1 6.131232364732735 19.41459744349576 2.123045207503859
1070 1 8.902671149119211 19.44409269808573 2.122976702911128
1071 1 0.7182156080834456 10.44370029084014 -5.630182898474787
1072 1 3.505492882733581 10.48395961009684 -5.630222125929303
1073 1 2.527553577710464 12.69177565585344 -4.337978587161742
1074 1 5.30926447160947 12.72807569059807 -4.338028034726964
1075 1 4.341861440727874 14.93973030374816 -3.045776089318449
1076 1 7.118988256164046 14.97260341808579 -3.04583002832582
1077 1 6.159367979754846 17.18736851587966 -1.753575871424885
1078 1 8.932728926935575 17.21730903692134 -1.753631191594371
1079 1 7.979044819975362 19.43460795028972 -0.4613777544421631
1080 1 10.74928984924978 19.46203958538866 -0.4614327748655762
1081 1 9.800257516092691 21.68142376224254 0.8308185827216719
1082 1 12.56789795835753 21.7066995542685 0.8307647565060605
1083 1 11.62259489769554 23.92781976785146 2.123013453939084
1084 1 14.38803454611148 23.95123142253668 2.122961277429412
1085 1 6.193674078625452 14.96218639421325 -5.630190212442949
1086 1 8.968405919574291 14.99194147255165 -5.630226460875697
1087 1 8.008562622648366 17.20775261239441 -4.337990335613764
1088 1 10.78015980112561 17.23522375829062 -4.338030921343461
1089 1 9.826089928057504 19.45323438931192 -3.045791558913024
1090 1 12.5950026585909 19.47867636905666 -3.045834279428695
1091 1 11.64551607543731 21.69854977013846 -1.753594063472014
1092 1 14.41212752567023 21.72219693331193 -1.753637557848434
1093 1 13.46635046145484 23.9436551126118 -0.4613978064075468
1094 1 16.23097979438604 23.96571458912782 -0.4614412362000546
1095 1 15.28825612047098 26.18852988211964 0.8307973327602218
1096 1 11.6722626378714 19.4705168861518 -5.630196929272551
1097 1 14.43977287411228 19.49408692486259 -5.630228818961138
1098 1 13.49010374228862 21.71457987271337 -4.337999669529476
1099 1 16.25561380022775 21.73667064298668 -4.33803381757259
1100 1 15.3095795386252 23.95858332112951 -3.045803136138353
1101 1 -43.6565559633963 -27.52674747412883 0.8308163053556679
1102 1 -44.54363059318072 -25.27422074229744 2.122951449953561
1103 1 -41.82477720404845 -25.29554541162647 2.122997496247247
1104 1 -43.6735142868546 -29.77146142153299 -3.045707014794919
1105 1 -44.56327661171151 -27.51992239697475 -1.753574694324206
1106 1 -41.84335585221886 -27.54089259119502 -1.753523263353713
1107 1 -42.73094951885579 -25.2882425996178 -0.4613941059092674
1108 1 -40.01273207774298 -25.31073766388272 -0.4613402768257013
1109 1 -40.89774400571135 -23.05678831582481 0.8307854927614398
1110 1 -38.18151398084606 -23.08103503731868 0.8308417600061986
1111 1 -39.06340598134001 -20.82554905323935 2.122963974851781
1112 1 -36.3495205652794 -20.85182472152255 2.123022607556766
1113 1 -44.58058234457204 -29.7647768928623 -5.630099333839736
1114 1 -41.85953433942555 -29.78524011778158 -5.630044451319309
1115 1 -42.74991814384443 -27.53373791483131 -4.337916509206013
1116 1 -40.03042348998354 -27.5556839995613 -4.337858351804014
1117 1 -40.91870761254975 -25.30304399102782 -3.045734521830747
1118 1 -38.20102149015626 -25.32669964473721 -3.045672739585882
1119 1 -39.08680133803904 -23.07271790765969 -1.753553550733103
1120 1 -36.37124586634514 -23.09836460300409 -1.753487761422817
1121 1 -37.25399073212685 -20.84277929296762 -0.4613738165307713
1122 1 -34.54097989038289 -20.87077173423097 -0.4613036213507868
1123 1 -35.41997599593621 -18.61323990943394 0.8308044157168317
1124 1 -32.71005283208908 -18.64403251774122 0.8308793906767271
1125 1 -33.58431115513494 -16.38409480318462 2.122980848397287
1126 1 -30.87820486195771 -16.41828032085558 2.12306085263929
1127 1 -39.10684054485272 -25.31862422107551 -5.630069634125168
1128 1 -36.38954700155194 -25.3433901377456 -5.630000081088534
1129 1 -37.2763335926027 -23.08958533682565 -4.337886263362335
1130 1 -34.56128019473833 -23.11657836597146 -4.337811081633268
1131 1 -35.44518961267735 -20.86115688237558 -3.045703951018693
1132 1 -32.73283609298831 -20.89081257554786 -3.0456222030191
1133 1 -33.61318989139294 -18.63341059592329 -1.753523017930283
1134 1 -30.90415180125906 -18.66630432684961 -1.753433535814607
1135 1 -31.78000379278021 -16.40642300247324 -0.4613439065185307
1136 1 -29.07513071830851 -16.44333589915273 -0.4612452297137446
1137 1 -29.94510767406875 -14.18026725664038 0.8308327729868359
1138 1 -27.24561649666778 -14.2222952109906 0.8309424576291073
1139 1 -28.1076226584902 -11.95499133811206 2.123006203298135
1140 1 -25.41533849812641 -12.0037346487 2.123129058098282
1141 1 -33.6368702247047 -20.88066124316018 -5.630026303100911
1142 1 -30.92487919101849 -20.91181996384653 -5.629933948594974
1143 1 -31.80705109414561 -18.65500236535214 -4.337840709469984
1144 1 -29.0985022851351 -18.68979688693605 -4.337737833830582
1145 1 -29.97659562614947 -16.43059106891817 -3.045656180602687
1146 1 -27.27240836194326 -16.46998002167996 -3.045540095281678
1147 1 -28.14521192177072 -14.20768885816554 -1.753473232943609
1148 1 -25.44672917346481 -14.25306652013116 -1.753340077376899
1149 1 -26.31239850707768 -11.98663756148194 -0.461292722346508
1150 1 -23.62169312630808 -12.04014403279573 -0.4611366756481177
1151 1 -24.4772168860355 -9.767881131480038 0.8308838582543578
1152 1 -21.7977335404033 -9.833047063408234 0.8310721494383599
1153 1 -22.63769020660808 -7.551960248804302 2.123053771851569
1154 1 -19.97578355626331 -7.635235430574584 2.123290685045073
1155 1 -28.17375597684014 -16.45648199844707 -5.629956372591529
1156 1 -25.4695013698659 -16.49773202901007 -5.629827271735508
1157 1 -26.34615425325518 -14.23744570326978 -4.33776293790276
1158 1 -23.6475340665108 -14.28524071870532 -4.337612922087794
1159 1 -24.5184889051791 -12.02160930094832 -3.045568606218181
1160 1 -21.82749649130915 -12.07836231313828 -3.045390006601088
1161 1 -22.69071681927012 -9.810265049837668 -1.753373064655894
1162 1 -20.0105886534289 -9.879953958159485 -1.753153543536338
1163 1 -20.86274456543191 -7.605691002711847 -0.4611758104881887
1164 1 -18.19917927652267 -7.695398981334016 -0.4608948135895332
1165 1 -19.03432475840514 -5.412507579414396 0.8310240152602431
1166 1 -16.3983725990723 -5.53535330961429 0.8313965412151718
1167 1 -17.20451689931762 -3.242663210484665 2.123227814159167
1168 1 -14.62146825038133 -3.404023274333523 2.123677387752275
1169 1 -22.72476526138884 -12.05915218919313 -5.629826420147106
1170 1 -20.03107004942965 -12.1158072359483 -5.62964935629272
1171 1 -20.90448820566229 -9.856462276744463 -4.337603263677656
1172 1 -18.21930417022045 -9.923800962888912 -4.337399900056404
1173 1 -19.08821303474106 -7.665605173289132 -3.045362292328625
1174 1 -16.41404226479405 -7.744618444495043 -3.045143510528517
1175 1 -17.28037917667112 -5.497083327907722 -1.753085483841447
1176 1 -14.6205630616789 -5.57138594495136 -1.752909323767772
1177 1 -15.494235395368 -3.378842641215985 -0.4607421420097109
1178 1 -12.89147871453745 -3.306185600596732 -0.4604218510751135
1179 1 -13.899207719408 -1.126627097870561 0.8321223737472625
1180 1 -11.46638859673376 -0.8579243993980725 0.8319892434820158
1181 1 -10.12514322196316 1.31700567284067 2.123005659096113
1182 1 -7.24705745753156 1.43621303767948 2.123200736997684
1183 1 -17.30791938464605 -7.722580781502645 -5.62956869383815
1184 1 -14.62018638467071 -7.763522200820594 -5.629487454821765
1185 1 -15.51124779464035 -5.562313090932927 -4.337298411784658
1186 1 -12.84356085874904 -5.531383152424276 -4.337191303936729
1187 1 -13.7497621184711 -3.372794358922676 -3.045003948073234
1188 1 -11.18944583460945 -3.173329349852811 -3.044432104826041
1189 1 -12.32678620281884 -0.9053962736774401 -1.752265635204746
1190 1 -9.69692109812085 -0.7967393745486452 -1.75254639447596
1191 1 -8.191070882788818 1.407380675057464 -0.4612323353795982
1192 1 -5.380003435904795 1.479285109321419 -0.4610901402183918
1193 1 -6.51294378487782 3.654549971471284 0.830756993506315
1194 1 -3.687136563499143 3.724277170990651 0.8308119485868548
1195 1 -4.747254723398129 5.905685657389827 2.122949302681481
1196 1 -1.933399455985285 5.967368571408549 2.122923906856013
1197 1 -12.04141644559625 -3.234825660237943 -5.628949210435608
1198 1 -9.462486135422189 -3.084491134308159 -5.628739191088763
1199 1 -10.58694559477374 -0.823610262008133 -4.336852256086448
1200 1 -7.899929153442818 -0.7557994246523467 -4.337016940056641
1201 1 -6.310921519094565 1.459600904504793 -3.045502533343744
1202 1 -3.52798994866601 1.511280943425737 -3.045410151682622
1203 1 -4.624655755964511 3.704628182736769 -1.753587902767134
1204 1 -1.821609327099777 3.756511343781227 -1.753510202798187
1205 1 -2.868953204449374 5.949214392897353 -0.4614523580747569
1206 1 -0.06842544937238237 5.99822661755606 -0.4614327063272465
1207 1 -1.08286147302349 8.195917688619929 0.8307387210991872
1208 1 1.710963387989757 8.240576800869931 0.8307201284976222
1209 1 0.7182156080834456 10.44370029084014 2.122942035382212
1210 1 3.505492882733581 10.48395961009684 2.122902807927697
1211 1 -4.452698482362615 1.496294054197682 -5.629809855414529
1212 1 -1.683885540168191 1.536815855883563 -5.629747556514141
1213 1 -2.75299050738982 3.741394187377471 -4.337911536836713
1214 1 0.03470957878462144 3.782221847112834 -4.337835930694112
1215 1 -0.9999642242842341 5.983606602213598 -3.045818840323747
1216 1 1.789788345905079 6.023557329772814 -3.04577883118195
1217 1 0.7809465176872621 8.226961445181239 -1.753653880612504
1218 1 3.567613050254511 8.264693297875136 -1.753646613426985
1219 1 2.577224438304446 10.47147836429952 -0.4614637632574563
1220 1 5.359678895786722 10.50649564696458 -0.4614785776225889
1221 1 4.382587607145078 12.7166804228212 0.8307345108035147
1222 1 7.160952087597716 12.74897166156925 0.8307061529690027
1223 1 6.193674078625452 14.96218639421325 2.122934721414051
1224 1 8.968405919574291 14.99194147255165 2.122898472981303
1225 1 0.8614277940325952 6.011475693329687 -5.630168986873787
1226 1 3.642700947689226 6.04485858247124 -5.63012158945275
1227 1 2.639824428166998 8.253112583658146 -4.338027107577858
1228 1 5.42030224651749 8.285413499547245 -4.338004877575488
1229 1 4.43296686161443 10.49560733958404 -3.045851873414263
1230 1 7.210967444880067 10.52626345054745 -3.045849920637378
1231 1 6.235382690254594 12.73882468859573 -1.753662366489885
1232 1 9.010506022699831 12.76762973181599 -1.75367472327717
1233 1 8.043898893890805 14.98251286347858 -0.4614670387080786
1234 1 10.81622757480232 15.00946440082345 -0.4614889437969731
1235 1 9.856596044258467 17.22646063351756 0.8307303203069967
1236 1 12.62637508236429 17.25165409430622 0.8307022603614491
1237 1 11.6722626378714 19.4705168861518 2.122928004584449
1238 1 14.43977287411228 19.49408692486259 2.122896114895862
1239 1 6.285665993222104 10.51669333263317 -5.630227725197503
1240 1 9.059673024765443 10.54374453191615 -5.630214722720611
1241 1 8.085987237231608 12.75855964526121 -4.338047803593348
1242 1 10.85807604461321 12.78436852903174 -4.338048413476396
1243 1 9.892513184359455 15.00091636742129 -3.045858699263008
1244 1 12.66251612882142 15.02538338823909 -3.045869314196588
1245 1 11.70341904150957 17.24361568289372 -1.753665235936655
1246 1 14.47139240868773 17.26674103065118 -1.753682936556092
1247 1 13.51750654746884 19.48652913198452 -0.461469888186838
1248 1 16.28359498825613 19.50836616364196 -0.4614924834056955
1249 1 15.33396511279024 21.72955790360886 0.8307260682142488
1250 1 11.73955827005408 15.01761170454937 -5.63024236560189
1251 1 14.50736226693918 15.03989417552249 -5.630244295631212
1252 1 13.54903123780724 17.25935671659445 -4.338053540821981
1253 1 16.31525528729515 17.28062228823689 -4.338062851361002
1254 1 15.36180183640683 19.50136185640187 -3.045861331555423
1255 1 -44.58058234457204 -29.7647768928623 2.123025600017264
1256 1 -41.85953433942555 -29.78524011778158 2.123080482537691
1257 1 -42.76650086679774 -29.77828360917429 -0.4613137373377953
1258 1 -40.04570686098622 -29.79953654244721 -0.4612533032285397
1259 1 -40.93686076565421 -27.54820918502472 0.8308711056053892
1260 1 -38.21767921917555 -27.57108536347964 0.8309357889525311
1261 1 -39.10684054485272 -25.31862422107551 2.123055299731832
1262 1 -36.38954700155194 -25.3433901377456 2.123124852768466
1263 1 -40.95260613818074 -29.79232639928189 -3.045649315745884
1264 1 -38.23195329625221 -29.81429697512177 -3.045583804047634
1265 1 -39.12403352090787 -27.56331175426117 -1.753461797528612
1266 1 -36.40502536873751 -27.58703135147092 -1.753391148897112
1267 1 -37.29526185512336 -25.33495780637001 -0.4612745593325478
1268 1 -34.57818512350786 -25.36072869546314 -0.4611979020473278
1269 1 -35.46623431628942 -23.1073657624618 0.8309122982970174
1270 1 -32.75145776809105 -23.13557589362079 0.8309960776322725
1271 1 -33.6368702247047 -20.88066124316018 2.123098630756089
1272 1 -30.92487919101849 -20.91181996384653 2.123190985262026
1273 1 -39.13882626835549 -29.80686311106995 -5.629981399698933
1274 1 -36.4181820390793 -29.82944055829763 -5.629911617210201
1275 1 -37.31134780392099 -27.57899570076005 -4.337790589695015
1276 1 -34.59234648149819 -27.60341996156456 -4.337714984596784
1277 1 -35.48386069484793 -25.35198527714884 -3.045599515499807
1278 1 -32.76678749892223 -25.37858408870735 -3.045517038448746
1279 1 -33.65636245398564 -23.12598803866202 -1.753408131573066
1280 1 -30.94158355088226 -23.15518437284202 -1.753317425403428
1281 1 -31.8288495388708 -20.90120720748382 -0.4612163795430129
1282 1 -29.1168456597587 -20.93355983590872 -0.4611156480193346
1283 1 -30.00131672559219 -18.67791403110528 0.8309758170919361
1284 1 -27.29273609080402 -18.7141820180208 0.8310890170174925
1285 1 -28.17375597684014 -16.45648199844707 2.12316856126547
1286 1 -25.4695013698659 -16.49773202901007 2.123297662121491
1287 1 -33.67250096376962 -25.36960230898236 -5.629920309936574
1288 1 -30.95518399820754 -25.39676204396214 -5.629834024735202
1289 1 -31.84654063127373 -23.1453179212812 -4.337723567678344
1290 1 -29.13143162028198 -23.17513932416222 -4.337628652474708
1291 1 -30.02089041861291 -20.9226180105023 -3.045525288512332
1292 1 -27.3084267538684 -20.95565963671091 -3.045419972118731
1293 1 -28.19565980063929 -18.70190632468296 -1.75332497009799
1294 1 -25.48641633387218 -18.73891224296923 -1.753206950672521
1295 1 -26.37101640364037 -16.48376080312654 -0.4611218507018306
1296 1 -23.6657643973987 -16.5257429918735 -0.4609881311698165
1297 1 -24.54723025731163 -14.26904857740386 0.8310852861623261
1298 1 -21.8470251850925 -14.31740576516 0.8312385158946287
1299 1 -22.72476526138884 -12.05915218919313 2.123298513709894
1300 1 -20.03107004942965 -12.1158072359483 2.12347557756428
1301 1 -28.21270495981133 -20.94459427386918 -5.629830346788412
1302 1 -25.49929011741639 -20.9775800698725 -5.629725856404432
1303 1 -26.3896744861411 -18.72654820156402 -4.337621374569421
1304 1 -23.67907868901283 -18.76317391532611 -4.337506500885731
1305 1 -24.56777934692917 -16.51177515759848 -3.045407371788484
1306 1 -21.86052894288177 -16.55271500205856 -3.045281292004794
1307 1 -22.74750949637801 -14.3014436451427 -1.753186293190653
1308 1 -20.04421397417202 -14.34734082606585 -1.753049684963939
1309 1 -20.92966778993008 -12.09740511640108 -0.4609549971536266
1310 1 -18.23094809592932 -12.14832840190419 -0.4608131506956916
1311 1 -19.11563861914025 -9.902737472684452 0.8312910983651711
1312 1 -16.42195948594044 -9.955975736194528 0.8314206375514466
1313 1 -17.30791938464605 -7.722580781502645 2.12355624001885
1314 1 -14.62018638467071 -7.763522200820594 2.123637479035235
1315 1 -22.76337288735102 -16.539458428833 -5.629695653494397
1316 1 -20.05325756899747 -16.57689974786517 -5.629591147370908
1317 1 -20.94595968060721 -14.33282250547886 -4.337465296990583
1318 1 -18.23848019514865 -14.3721034933433 -4.337365389858492
1319 1 -19.13153127499421 -12.13299711087926 -3.045226264423803
1320 1 -16.42674873104285 -12.17074239928301 -3.045145122544733
1321 1 -17.32139784513953 -9.941959128963878 -1.752981195876365
1322 1 -14.61997992986014 -9.967518738563586 -1.752936583097322
1323 1 -15.51780291101413 -7.758920626411508 -0.4607451113955006
1324 1 -12.8266541297609 -7.742429666447509 -0.4606942628782222
1325 1 -13.73012095326158 -5.56001925089736 0.8314872344372086
1326 1 -11.08455221555617 -5.449542800654266 0.8318201296145635
1327 1 -12.04141644559625 -3.234825660237943 2.124175723421392
1328 1 -9.462486135422189 -3.084491134308159 2.124385742768237
1329 1 -17.32931582019149 -12.16112441996836 -5.629536227994936
1330 1 -14.61984957584898 -12.17849706246721 -5.629508260361257
1331 1 -15.52130057148787 -9.96474874060692 -4.337316731756738
1332 1 -12.81815824130221 -9.954610961436845 -4.337286637345556
1333 1 -13.72265882279739 -7.757740756180906 -3.045101451739541
1334 1 -11.04210533968194 -7.692058901813503 -3.044922920362579
1335 1 -11.96211644284218 -5.492283763292207 -1.75269506673824
1336 1 -9.332064041808287 -5.369620470027012 -1.752327538819149
1337 1 -10.33017797383235 -3.123882029517952 -0.45999663910962
1338 1 -7.705354217926793 -3.026475183860037 -0.4600451943816943
1339 1 -8.800495659474585 -0.7746214557102187 0.8317752456753107
1340 1 -6.091140316328321 -0.7248582139534261 0.831670461969942
1341 1 -4.452698482362615 1.496294054197682 2.123315078442471
1342 1 -1.683885540168191 1.536815855883563 2.123377377342859
1343 1 -11.93307930723735 -7.719663593189362 -5.629383255394737
1344 1 -9.26582531455573 -7.63177264552573 -5.629101179452565
1345 1 -10.20857070018452 -5.407857532770589 -4.336801833876772
1346 1 -7.572486542184262 -5.305824684945009 -4.336595202460005
1347 1 -8.587125333653344 -3.052685743129143 -3.044385452592558
1348 1 -5.927270549396834 -2.985495280469016 -3.044500593930037
1349 1 -6.996538753184437 -0.7393997951926647 -1.75267619404661
1350 1 -4.276271774537287 -0.6999156918403864 -1.752748741834853
1351 1 -2.605205815476689 1.524685112421271 -0.4610147163621237
1352 1 0.1555762447184659 1.558104973569729 -0.4609707944432946
1353 1 -0.8925056483931968 3.770022125587046 0.8308901208055315
1354 1 1.884658157553643 3.803537910014178 0.8309569811289894
1355 1 0.8614277940325952 6.011475693329687 2.122955946983212
1356 1 3.642700947689226 6.04485858247124 2.12300334440425
1357 1 -6.818393612569 -3.00441748149534 -5.628834979742082
1358 1 -4.135638813144855 -2.954382788613231 -5.628951683375041
1359 1 -5.18426473913733 -0.7117887738989366 -4.337103339802693
1360 1 -2.457871975532095 -0.6789907703400135 -4.33715680833763
1361 1 -0.7637036073970549 1.547899106452701 -3.045358112098248
1362 1 1.992089032109538 1.576382158360791 -3.045325966713248
1363 1 0.9603475000931443 3.793335658350568 -1.753438658146036
1364 1 3.730068983703292 3.821728081363267 -1.75338131888455
1365 1 2.716828656102436 6.03463895340914 -0.4613878883857259
1366 1 5.49145796275501 6.063149457662123 -0.4613395051752702
1367 1 4.494412311452081 8.275428407236195 0.8307359629857221
1368 1 7.269650838489031 8.303455398882743 0.830766181557411
1369 1 6.285665993222104 10.51669333263317 2.122897208659496
1370 1 9.059673024765443 10.54374453191615 2.122910211136389
1371 1 1.07412947773855 1.567564798337653 -5.629710138181253
1372 1 3.826614910008887 1.592406813315214 -5.629685896119698
1373 1 2.807843760544097 3.812965641338233 -4.33777389262422
1374 1 5.572155128624814 3.837593767053398 -4.337725123158501
1375 1 4.567538588247752 6.054330426508319 -3.045730407366106
1376 1 7.336934423260749 6.079134104140982 -3.045684018492397
1377 1 6.345358352968695 8.294731743976929 -1.753619711349086
1378 1 9.116198064828037 8.319361887414074 -1.753585798424651
1379 1 8.135623250711202 10.53526327729833 -0.4614704969586618
1380 1 10.90610684499732 10.55933262532787 -0.4614505210856032
1381 1 9.934528504890341 12.77622064453921 0.830700144180639
1382 1 12.7038343911764 12.79946663910348 0.8307079232722085
1383 1 11.73955827005408 15.01761170454937 2.12288256825511
1384 1 14.50736226693918 15.03989417552249 2.122880638225788
1385 1 6.414560466500594 6.071395087566719 -5.630073966771771
1386 1 9.17979495781892 6.093309896671694 -5.630030818748907
1387 1 8.193244359306826 8.311647245122035 -4.337972401111032
1388 1 10.96039655625089 8.333543846595653 -4.337937367304511
1389 1 9.983155258118376 10.551753733687 -3.045833009086138
1390 1 12.75055610940802 10.57334521645829 -3.045808885110159
1391 1 11.78117063334421 12.79210689216019 -1.753670771977383
1392 1 14.54795642444349 12.81316153107561 -1.753657164997055
1393 1 13.58511318946268 15.03280335087676 -0.4614949204662961
1394 1 16.35086975496741 15.05317193771483 -0.4614903006714839
1395 1 15.3934647324377 17.27382407174938 0.8306889853862449
1396 1 11.82856279965089 10.56651861597152 -5.630192383376829
1397 1 14.59327636594093 10.58603723898623 -5.63016603267733
1398 1 13.62608919730399 12.80647617285827 -4.338037444482243
1399 1 16.39061005261501 12.82565299307958 -4.338019920609466
1400 1 15.4292766314202 15.04667708451091 -3.045867730659866
1401 1 -39.13882626835549 -29.80686311106995 2.123143534158066
1402 1 -36.4181820390793 -29.82944055829763 2.123213316646799
1403 1 -37.32507608668111 -29.82182713731486 -0.4611855323553884
1404 1 -34.60428979398674 -29.84485378476441 -0.461112667929032
1405 1 -35.49869692553983 -27.59517835779495 0.8310090730767377
1406 1 -32.7795113322454 -27.62010442847711 0.8310881054420809
1407 1 -33.67250096376962 -25.36960230898236 2.123204623920427
1408 1 -30.95518399820754 -25.39676204396214 2.123290909121798
1409 1 -35.51125788569388 -29.83712198463816 -3.045512306730246
1410 1 -32.7901644673826 -29.86038521185032 -3.045437956312668
1411 1 -33.68595715448648 -27.61173635214694 -1.753313604549106
1412 1 -30.96637740010155 -27.6368855441853 -1.75323322745612
1413 1 -31.86102280301147 -25.38764767922114 -0.461113221222891
1414 1 -29.1431899137998 -25.41499377080247 -0.4610259093853775
1415 1 -30.03655735332555 -23.16513916288708 0.8310892976029445
1416 1 -27.32075729062143 -23.19506691368802 0.8311846041193343
1417 1 -28.21270495981133 -20.94459427386918 2.123294587068587
1418 1 -25.49929011741639 -20.9775800698725 2.123399077452567
1419 1 -33.69726349891324 -29.85261579911359 -5.62983778488503
1420 1 -30.97568994637435 -29.87584113748052 -5.629763934702105
1421 1 -31.8729908799861 -27.62849758635698 -4.337634985355769
1422 1 -29.15279839129169 -27.65350569205888 -4.337555862702162
1423 1 -30.04924759396109 -25.40589115767814 -3.045429845355809
1424 1 -27.33061827968767 -25.43292769462677 -3.045344979894879
1425 1 -28.22617526968364 -23.18513455571839 -1.753221771819502
1426 1 -25.50931824337068 -23.21447261561011 -1.75313082272781
1427 1 -26.40396892018506 -20.96668304657901 -0.4610099752096759
1428 1 -23.68911805737996 -20.99860032442714 -0.4609129652766244
1429 1 -24.58290304429683 -18.75116367286709 0.8312065924079006
1430 1 -21.87030534504039 -18.78587141905768 0.8313087701312145
1431 1 -22.76337288735102 -16.539458428833 2.123429280362602
1432 1 -20.05325756899747 -16.57689974786517 2.123533786486091
1433 1 -28.23698761226749 -25.4240232740913 -5.629747466332427
1434 1 -25.51729773030043 -25.45012773189494 -5.629668955238636
1435 1 -26.41514763323982 -23.20487070085342 -4.337534887797652
1436 1 -23.6969050362142 -23.23274279222723 -4.33745348307502
1437 1 -24.59435139753101 -20.98825477316507 -3.045318343187021
1438 1 -21.87766208810827 -21.0178304865966 -3.045235718982728
1439 1 -22.77489310087255 -18.77479698570825 -1.753097199444265
1440 1 -20.05982728000868 -18.80567294230648 -1.753016743821552
1441 1 -20.95717080047439 -16.56527986130387 -0.4608711494759377
1442 1 -18.24374392464486 -16.59624848605242 -0.4607990949419616
1443 1 -19.14172528882084 -14.36057055265708 0.8313589023468362
1444 1 -16.4299668104685 -14.38852117691921 0.8314128251835982
1445 1 -17.32931582019149 -12.16112441996836 2.123588705862064
1446 1 -14.61984957584898 -12.17849706246721 2.123616673495743
1447 1 -22.78356165639351 -21.00850025654558 -5.629635217826834
1448 1 -20.06480625764085 -21.0342651693331 -5.629572508141619
1449 1 -20.96528733608421 -18.79622364691211 -4.337414204516985
1450 1 -18.24763150661531 -18.8211441945367 -4.337360829896923
1451 1 -19.14877565938176 -16.58731028468332 -3.04519208213978
1452 1 -16.43228222437555 -16.60875461737282 -3.045154313509373
1453 1 -17.33452445609004 -14.38154004011267 -1.752972756657439
1454 1 -14.61975979345246 -14.39408084925114 -1.752953434582047
1455 1 -15.52348196823786 -12.17664966567256 -0.4607622422638415
1456 1 -12.8130383257152 -12.16981568594057 -0.460741811877283
1457 1 -13.71870109374833 -9.964034404288354 0.8314454805174447
1458 1 -11.02116303065677 -9.921501122381256 0.8315489809481167
1459 1 -11.93307930723735 -7.719663593189362 2.123741678462263
1460 1 -9.26582531455573 -7.63177264552573 2.124023754404434
1461 1 -17.33821647057908 -16.60346783012421 -5.629536772796501
1462 1 -14.61969419199301 -16.61293226650438 -5.629522431154651
1463 1 -15.52497449765234 -14.39276191972224 -4.33733161073917
1464 1 -12.8096064834882 -14.3878526642474 -4.337316451253076
1465 1 -13.71624002309806 -12.17617187222196 -3.045128129316924
1466 1 -11.00905403638298 -12.14668016186116 -3.045062731538329
1467 1 -11.91888557255398 -9.940057137628289 -1.752877496348594
1468 1 -9.230190781741783 -9.877269245371625 -1.752685605269804
1469 1 -10.15328280018155 -7.662106872564442 -0.4604497478932457
1470 1 -7.491715862431782 -7.574717293428577 -0.460186822254536
1471 1 -8.453615786359927 -5.335629048439567 0.8321149884530212
1472 1 -5.801452582085023 -5.256979131974505 0.8321755290119524
1473 1 -6.818393612569 -3.00441748149534 2.124289954114917
1474 1 -4.135638813144855 -2.954382788613231 2.124173250481959
1475 1 -11.91056903725929 -12.15980201821523 -5.629470550035562
1476 1 -9.209169781929106 -12.11373932378548 -5.629340063526392
1477 1 -10.12500102131528 -9.900181750765913 -4.337135190443971
1478 1 -7.443191327799306 -9.830384248144247 -4.33690826973348
1479 1 -8.378882846039772 -7.602385868533334 -3.044636801350898
1480 1 -5.714664915137805 -7.525697738851376 -3.04445965377628
1481 1 -6.688420547613763 -5.27978352228207 -1.752202036295172
1482 1 -4.019618804072643 -5.21910610111005 -1.752222780686609
1483 1 -5.032804890519476 -2.96898904529127 -0.4601648360489021
1484 1 -2.335100127446747 -2.929459459891573 -0.4602674698260971
1485 1 -3.367413573090776 -0.6890348427173807 0.8316085927413557
1486 1 -0.637243092603736 -0.6609528994988647 0.8315673239165688
1487 1 1.07412947773855 1.567564798337653 2.123414795675746
1488 1 3.826614910008887 1.592406813315214 2.123439037737302
1489 1 -6.603767080026405 -7.549124991943923 -5.628877919756881
1490 1 -3.932257100082785 -7.484981412230427 -5.628787163725888
1491 1 -4.911768562006237 -5.236902369295882 -4.336582564894279
1492 1 -2.228974948061843 -5.188919850666772 -4.336639546571771
1493 1 -3.236273250254634 -2.941299738845496 -3.044610926379279
1494 1 -0.5285020656314146 -2.908704969140508 -3.044697948867697
1495 1 -1.54778134953861 -0.6696622586142591 -1.752795482954001
1496 1 1.184881647583868 -0.6450936987731211 -1.752828471158427
1497 1 2.909557416286862 1.584640221974119 -0.4609429719695031
1498 1 5.659739711239212 1.606680649410033 -0.4609242469830543
1499 1 4.651468906015682 3.829913430379567 0.8310098777912676
1500 1 7.411742802330421 3.851667785575022 0.8310513868162979
1501 1 6.414560466500594 6.071395087566719 2.123050967085229
1502 1 9.17979495781892 6.093309896671694 2.123094115108093
1503 1 -1.432428068246313 -2.918649266016506 -5.62904637021679
1504 1 1.282364761467193 -2.890924863075806 -5.629119718105636
1505 1 0.2736648630440452 -0.6527847122461097 -4.3371935641145
1506 1 3.008058326990373 -0.6309389210205384 -4.337220663471244
1507 1 4.743325259246056 1.599737993226475 -3.045304717911992
1508 1 7.491840113434895 1.619553069809709 -3.045289972957699
1509 1 6.492220502929623 3.844828648293842 -1.75333634356366
1510 1 9.249410475819564 3.864320059657147 -1.753300857747991
1511 1 8.258656838862141 6.086423011707605 -0.4612946488385461
1512 1 11.02054643641348 6.106036505479676 -0.4612551267888916
1513 1 10.03856582464562 8.32664690418836 0.8308008975093975
1514 1 12.8026201110513 8.346314604374044 0.8308355522597539
1515 1 11.82856279965089 10.56651861597152 2.122932550480171
1516 1 14.59327636594093 10.58603723898623 2.12295890117967
1517 1 6.575899926207532 1.613274408017951 -5.629669315753429
1518 1 9.323169141112217 1.631277508977411 -5.62965752198204
1519 1 8.330787590404221 3.858153060249935 -4.337686769722263
1520 1 11.08557354350955 3.875816956807177 -4.337656253932096
1521 1 10.10040762090305 6.099835918496272 -3.045642668479632
1522 1 12.85957867286897 6.117580027592016 -3.045606741894422
1523 1 11.88173460046161 8.340089097362304 -1.753550815445373
1524 1 14.64317549210194 8.357915655803474 -1.75351737957378
1525 1 13.67211768324592 10.57984245126087 -0.4614250886356548
1526 1 16.43449049088737 10.59761365823405 -0.4613977977328871
1527 1 15.46945675389549 12.81954654277958 0.8307236927657682
1528 1 11.94025678414944 6.111942317916403 -5.629993113679537
1529 1 14.69719453118103 6.128141571729919 -5.629960563589266
1530 1 13.72308943796077 8.352248504905926 -4.337903246818136
1531 1 16.48231424246394 8.368535366420129 -4.337871467486179
1532 1 15.51405899589943 10.59195373819776 -3.045781934762994
1533 1 -33.69726349891324 -29.85261579911359 2.12328714897197
1534 1 -30.97568994637435 -29.87584113748052 2.123360999154895
1535 1 -31.88297809653494 -29.86813645258518 -0.4610382971600793
1536 1 -29.16075299098692 -29.89098324091191 -0.4609672456949121
1537 1 -30.05965254617897 -27.64523422221446 0.831168208476126
1538 1 -27.33863513244649 -27.66964638207947 0.831243099969553
1539 1 -28.23698761226749 -25.4240232740913 2.123377467524573
1540 1 -25.51729773030043 -25.45012773189494 2.123455978618364
1541 1 -30.0682860060067 -29.88346805986887 -3.045365203754812
1542 1 -27.34525219563801 -29.90552941001656 -3.045299405972553
1543 1 -28.24579784780796 -27.66165821427065 -1.753155833517913
1544 1 -25.52376959568334 -27.68493143235515 -1.753088260878226
1545 1 -26.42406112635694 -25.44164985564111 -0.4609437212478911
1546 1 -23.70309509008854 -25.46608200721207 -0.4608754363437517
1547 1 -24.603244217423 -23.2237922213713 0.8312714272772725
1548 1 -21.88337851720038 -23.24916651252407 0.8313385239640065
1549 1 -22.78356165639351 -21.00850025654558 2.123489716030165
1550 1 -20.06480625764085 -21.0342651693331 2.123552425715381
1551 1 -28.25307866735523 -29.89835005076193 -5.629695201844086
1552 1 -25.52910855129127 -29.91915904695799 -5.629637029043162
1553 1 -26.43129626637245 -27.67742138857013 -4.33748425184259
1554 1 -23.70812095830633 -27.69893794139201 -4.337426800074871
1555 1 -24.6103128244238 -25.45829502886953 -3.045271124445056
1556 1 -21.88794007367235 -25.48022556249087 -3.045216232721082
1557 1 -22.79028581846092 -23.241232578191 -1.753056045745095
1558 1 -20.06870769229984 -23.26298322157979 -1.753006455655164
1559 1 -20.97140955417511 -21.02646214067641 -0.4608397693623301
1560 1 -18.25062280078798 -21.0468856233421 -0.4607991920879029
1561 1 -19.15393254223656 -18.81403789748818 0.8313759934448754
1562 1 -16.43403012942109 -18.83097069957509 0.8314036608454574
1563 1 -17.33821647057908 -16.60346783012421 2.123588161060499
1564 1 -14.61969419199301 -16.61293226650438 2.123602502702348
1565 1 -22.79563791590314 -25.47341656330707 -5.629607044951404
1566 1 -20.07184744743391 -25.49197877450905 -5.62956724517144
1567 1 -20.97618296831342 -23.25644835419782 -4.337394885120637
1568 1 -18.25299777953354 -23.27345651637577 -4.337363289679999
1569 1 -19.15786761593358 -21.04111265554509 -3.045184075559453
1570 1 -16.43539744868541 -21.05480181478226 -3.045163024670891
1571 1 -17.34097402028444 -18.82683319985714 -1.752976895917231
1572 1 -14.61964416197772 -18.83422313504648 -1.75296566505235
1573 1 -15.52606072494016 -16.6119438081927 -0.4607751789288954
1574 1 -12.80714128343697 -16.60825033337176 -0.4607632332960347
1575 1 -13.71455889134058 -14.39242023760146 0.8314255778905146
1576 1 -11.00123231538627 -14.37087552231418 0.8314700132948922
1577 1 -11.91056903725929 -12.15980201821523 2.123654383821438
1578 1 -9.209169781929106 -12.11373932378548 2.123784870330607
1579 1 -17.34311444832501 -21.05147806304491 -5.629542349871166
1580 1 -14.61960474747309 -21.05740499648812 -5.629533190899502
1581 1 -15.52688700001305 -18.83345494420312 -4.337342991143878
1582 1 -12.80528238711963 -18.83057707921516 -4.337333171463746
1583 1 -13.71333662356998 -16.61168747156341 -3.04514414022507
1584 1 -10.99577399712094 -16.5953028226086 -3.045112131817231
1585 1 -11.90511061628059 -14.38057271468103 -1.752927178529736
1586 1 -9.195671678777185 -14.34572778765968 -1.752835853944243
1587 1 -10.10859340105473 -12.13110055089055 -0.4606435991022915
1588 1 -7.412917080204972 -12.0761518620177 -0.4604673994864485
1589 1 -8.336387125379019 -9.853750858432582 0.831766766693403
1590 1 -5.657118295228019 -9.78604144410777 0.8319703107959775
1591 1 -6.603767080026405 -7.549124991943923 2.124247014100118
1592 1 -3.932257100082785 -7.484981412230427 2.124337770131112
1593 1 -11.90124829016891 -16.60273165644519 -5.62950293088361
1594 1 -9.186386695405179 -16.57561885992238 -5.629436788441172
1595 1 -10.0980731297481 -14.35912649552742 -4.337249326644285
1596 1 -7.393015238461041 -14.31559008413801 -4.337115950634295
1597 1 -8.310670284768673 -12.0952360681396 -3.044905246361447
1598 1 -5.618796273903939 -12.03798234917556 -3.044719422974883
1599 1 -6.550214846219735 -9.807701481458736 -1.752464676297316
1600 1 -3.869542648934997 -9.746433859221341 -1.752313531800024
1601 1 -4.824194101463103 -7.504366624621861 -0.4600551698326405
1602 1 -2.143975004685332 -7.45130755822854 -0.4600271827437459
1603 1 -3.125269014949549 -5.203214831648035 0.8321325877967196
1604 1 -0.4314652943080937 -5.164159652367585 0.8320629979995899
1605 1 -1.432428068246313 -2.918649266016506 2.12407856364021
1606 1 1.282364761467193 -2.890924863075806 2.124005215751364
1607 1 -6.515698653848322 -12.05694810976426 -5.629154561469159
1608 1 -3.825136818262861 -12.001725539377 -5.628988808572347
1609 1 -4.763628857795192 -9.765592471353273 -4.336729246164689
1610 1 -2.079067366018071 -9.7119617477943 -4.336633443212923
1611 1 -3.038838249345289 -7.467358293957436 -3.04440352913613
1612 1 -0.3502098764331905 -7.423215375695394 -3.044414746899506
1613 1 -1.330970821329112 -5.175969626418281 -1.752288049748735
1614 1 1.371341892667823 -5.143324466601852 -1.752359127966534
1615 1 0.3764817025821774 -2.899497719612046 -0.4603473503475286
1616 1 3.096335300474568 -2.875365747890705 -0.4604094563388248
1617 1 2.096359034868952 -0.6378266686881223 0.8315375152157969
1618 1 4.832002643877829 -0.6181549816816108 0.831514762394423
1619 1 6.575899926207532 1.613274408017951 2.123455618103571
1620 1 9.323169141112217 1.631277508977411 2.12346741187496
1621 1 -1.247736723126243 -7.436648313503898 -5.628781345270927
1622 1 1.448333623232388 -7.399458154112431 -5.62881476459444
1623 1 0.4693586387398234 -5.153323349572029 -4.336710772301273
1624 1 3.178254381618418 -5.125410041588816 -4.336778514611382
1625 1 2.189017987691493 -2.882903480416793 -3.044765381908156
1626 1 4.912625400005451 -2.861525981197677 -3.044818404046164
1627 1 3.91994811535344 -0.6243925186204072 -1.752853241626481
1628 1 6.656524168284015 -0.6064980680152094 -1.752872687841991
1629 1 8.407588621920942 1.625545706390716 -0.4609110830858838
1630 1 11.15390296954452 1.642043831368471 -0.4609015288288696
1631 1 10.16765889691052 3.870199261477851 0.8310842682857864
1632 1 12.92053715196325 3.886356270973018 0.831110676714268
1633 1 11.94025678414944 6.111942317916403 2.123131820177464
1634 1 14.69719453118103 6.128141571729919 2.123164370267734
1635 1 4.004228862338264 -2.868255551758017 -5.629177037938389
1636 1 6.730690698877577 -2.849056241478798 -5.629222725006096
1637 1 5.744200593724399 -0.6121982835010958 -4.337241655797567
1638 1 8.481490588830162 -0.595784436083636 -4.337258522832602
1639 1 10.23860161859809 1.636770454031832 -3.045279373077716
1640 1 12.98416799841685 1.651998068876207 -3.045271552037549
1641 1 12.00318949724238 3.881195976922451 -1.753272492399048
1642 1 14.7545300497357 3.896088758124845 -1.753249494509396
1643 1 13.77854747130991 6.122972951806444 -0.4612209222451686
1644 1 16.5336318661578 6.137876124536941 -0.4611914563576713
1645 1 15.56290808528684 8.363338083540397 0.8308681965218121
1646 1 12.06908763087702 1.647114667589243 -5.629648887803477
1647 1 14.81405724847953 1.661255019625091 -5.629642430969937
1648 1 13.83764296134058 3.891315369294798 -4.337631628702885
1649 1 16.58772683952859 3.905131909872175 -4.337611480207266
1650 1 15.6155477183276 6.13310395838799 -3.045575772338419
1651 1 -28.25307866735523 -29.89835005076193 2.123429732012913
1652 1 -25.52910855129127 -29.91915904695799 2.123487904813837
1653 1 -26.4372644857543 -29.91248007985005 -0.4609049807701713
1654 1 -23.71227659088946 -29.93152394062775 -0.4608564079999335
1655 1 -24.61604631321226 -27.69212227294651 0.8313059260592763
1656 1 -21.89166154952348 -27.71121657047087 0.8313512305167741
1657 1 -22.79563791590314 -25.47341656330707 2.123517888905596
1658 1 -20.07184744743391 -25.49197877450905 2.123557688685559
1659 1 -24.62077984943049 -29.92552200630529 -3.045245824613235
1660 1 -21.89475452938827 -29.94226520574563 -3.045208083395047
1661 1 -22.79999186784482 -27.70532160431378 -1.753036698063542
1662 1 -20.07442957738361 -27.72132121625063 -1.753004295206053
1663 1 -20.98000625944806 -25.48643640372213 -0.4608279987311314
1664 1 -18.25493056222674 -25.5007996449281 -0.4608028595821847
1665 1 -19.16097035173965 -23.26868043160766 0.831378972080836
1666 1 -16.43649684792377 -23.27996550819604 0.8313955107242874
1667 1 -17.34311444832501 -21.05147806304491 2.123582583985834
1668 1 -14.61960474747309 -21.05740499648812 2.123591742957498
1669 1 -22.80360000309201 -29.93711979080027 -5.629593777866702
1670 1 -20.07659139620331 -29.95103578002157 -5.629567038950062
1671 1 -20.98313694813106 -27.71656741879909 -4.33738794867997
1672 1 -18.25653510096567 -27.72884595855511 -4.337367555602719
1673 1 -19.16348100936622 -25.49678653423577 -3.045183968262167
1674 1 -16.43740036823894 -25.50624342077694 -3.045170615961815
1675 1 -17.34482551829276 -23.27723825190603 -1.752982976628647
1676 1 -14.61957289393586 -23.28209579983129 -1.752975271020407
1677 1 -15.52753681632609 -21.05679091219443 -0.460785314125626
1678 1 -12.80382940195777 -21.0544861957176 -0.4607769897423248
1679 1 -13.71240747021265 -18.83325559089001 0.8314121240764707
1680 1 -10.99174764059885 -18.82039563513899 0.8314362844472507
1681 1 -11.90124829016891 -16.60273165644519 2.123622002973391
1682 1 -9.186386695405179 -16.57561885992238 2.123688145415828
1683 1 -17.34622552287516 -25.50396605346653 -5.629548509245672
1684 1 -14.61954661615845 -25.50801872434426 -5.629541867264001
1685 1 -15.52806132355675 -23.28159372117413 -4.33735211679241
1686 1 -12.80266180576998 -23.27970688143162 -4.33734489513399
1687 1 -13.71167707376118 -21.05663147319869 -3.045155770330101
1688 1 -10.98865267294768 -21.04627941845225 -3.045136833685822
1689 1 -11.89836730766673 -18.82625514300411 -1.752950459081246
1690 1 -9.179645483381837 -18.80463715753961 -1.752900961255014
1691 1 -10.09080346472534 -16.58618214363784 -0.4607151220578811
1692 1 -7.379242187539703 -16.55121978032071 -0.460613852263847
1693 1 -8.294008264715325 -14.3310867423608 0.8315841849252716
1694 1 -5.592610302483118 -14.28337221660645 0.8317399681086655
1695 1 -6.515698653848322 -12.05694810976426 2.123970372387841
1696 1 -3.825136818262861 -12.001725539377 2.124136125284652
1697 1 -11.89613327327237 -21.05101260575807 -5.629520881175444
1698 1 -9.174539902082184 -21.03341335632331 -5.629482736215206
1699 1 -10.08549123011879 -18.81313601059059 -4.33729725613677
1700 1 -7.369268760209112 -18.78463015574779 -4.33721931439085
1701 1 -8.282538611985904 -16.56387684618343 -3.045027752358183
1702 1 -5.574109680103881 -16.5241445098309 -3.044901208003143
1703 1 -6.49259031541928 -14.29958571164621 -1.752688395242904
1704 1 -3.793459062897464 -14.25124772867809 -1.752532381291
1705 1 -4.722003244868668 -12.01951553203924 -0.4602887936842688
1706 1 -2.030602523285168 -11.96856617953957 -0.4601581176842702
1707 1 -2.974718414279579 -9.728570870516885 0.8320930805471511
1708 1 -0.2851269326449799 -9.68221433931757 0.8321429580682629
1709 1 -1.247736723126243 -7.436648313503898 2.124343588586073
1710 1 1.448333623232388 -7.399458154112431 2.12431016926256
1711 1 -6.476453786887783 -16.53789898227268 -5.629321195051222
1712 1 -3.770438960501961 -16.49611775291164 -5.629184042918714
1713 1 -4.692943400689195 -14.26719505639611 -4.336957516764459
1714 1 -1.994562102165856 -14.22058518961067 -4.336817820624485
1715 1 -2.928043944336398 -11.98472291022382 -3.044570218088717
1716 1 -0.2343289087569573 -11.93884346476536 -3.04447743860817
1717 1 -1.182542199393362 -9.69653728847142 -1.752242192358664
1718 1 1.512331293225865 -9.656520657549818 -1.752226075141778
1719 1 0.5485118038896069 -7.410861661386134 -0.4600512017477663
1720 1 3.25091542201608 -7.379068113496612 -0.4600959773359925
1721 1 2.274346787926724 -5.134050943579188 0.8319932246737758
1722 1 4.988380523268306 -5.109729551388716 0.831930637169243
1723 1 4.004228862338264 -2.868255551758017 2.123947895918611
1724 1 6.730690698877577 -2.849056241478798 2.123902208850903
1725 1 -1.132719758516448 -11.95327542375279 -5.628877274551062
1726 1 1.56413731679015 -11.91244183582502 -5.628818432301292
1727 1 0.6131717216868484 -9.668904689218364 -4.336601926126251
1728 1 3.313095349115452 -9.634199702988509 -4.336608857137167
1729 1 2.349163755913141 -7.388892668905699 -3.044454886210402
1730 1 5.056867342855025 -7.361317791628975 -3.044504507380083
1731 1 4.082961918122212 -5.117324506047759 -1.752424408191776
1732 1 6.80105299067143 -5.095800854631426 -1.752481412723311
1733 1 5.821463361100108 -2.85513744550123 -0.4604586171762937
1734 1 8.550142769409874 -2.837704076533486 -0.4604983462194836
1735 1 7.568958395369286 -0.6010330326409874 0.8314966820825238
1736 1 10.30680713038296 -0.585872095807505 0.8314818695349877
1737 1 12.06908763087702 1.647114667589243 2.123476046053523
1738 1 14.81405724847953 1.661255019625091 2.123482502887063
1739 1 4.153507981985909 -7.369900627064337 -5.628862573758089
1740 1 6.865622476288626 -7.345664050399862 -5.628913281707725
1741 1 5.894433181205583 -5.102570488861697 -4.336838313674502
1742 1 8.615768335439697 -5.083276541447659 -4.336889922840044
1743 1 7.64026313238743 -2.843253450032477 -3.04486096042157
1744 1 10.37069765610351 -2.827281304845078 -3.044895808722589
1745 1 9.394109928673531 -0.5907357018350297 -1.752888471768754
1746 1 12.13240413385711 -0.5766490041995712 -1.752901618261507
1747 1 13.89915477476332 1.656707500957838 -0.460894429326614
1748 1 16.64364068483432 1.669906606049902 -0.4608890620488848
1749 1 15.67121871423312 3.900690185054593 0.8311321871194484
1750 1 9.460297008318406 -2.832386373990878 -5.629259894970169
1751 1 12.19214330255106 -2.817643954303279 -5.629290707625564
1752 1 11.21957418207908 -0.5811804620210899 -4.337272460473277
1753 1 13.95822925842416 -0.5680251687359498 -4.337284234952318
1754 1 15.72888351985804 1.665651461956323 -3.04526566963544
1755 1 -22.80360000309201 -29.93711979080027 2.123531155990297
1756 1 -20.07659139620331 -29.95103578002157 2.123557894906939
1757 1 -20.98574794798331 -29.94691735482415 -0.4608242227925006
1758 1 -18.25788912622881 -29.95752665594612 -0.4608073911249115
1759 1 -19.16555549440757 -27.72542878357824 0.8313774058368242
1760 1 -16.43815626700368 -27.73346467440782 0.831388439060649
1761 1 -17.34622552287516 -25.50396605346653 2.123576424611327
1762 1 -14.61954661615845 -25.50801872434426 2.123583066592999
1763 1 -19.1672992891386 -29.95458326022339 -3.045186517335659
1764 1 -16.43879810764671 -29.96149370392432 -3.045177217024583
1765 1 -17.347392764984 -27.73153480010242 -1.752989018057368
1766 1 -14.61952456798448 -27.73496676395568 -1.752983182252815
1767 1 -15.52849362255749 -25.50760059361722 -0.46079360838017
1768 1 -12.80170266198079 -25.50602767631624 -0.4607872308633316
1769 1 -13.71108771481892 -23.28146331641849 0.8314018675073842
1770 1 -10.98619736927116 -23.27295615256239 0.8314171717502716
1771 1 -11.89613327327237 -21.05101260575807 2.123604052681556
1772 1 -9.174539902082184 -21.03341335632331 2.123642197641795
1773 1 -17.34838118503328 -29.95983770058334 -5.629554344252364
1774 1 -14.61950580431765 -29.96278106095252 -5.629549137647052
1775 1 -15.52885608817962 -27.7346131660771 -4.337359716049281
1776 1 -12.80090050047477 -27.73328199215458 -4.33735400437372
1777 1 -13.71060208081777 -25.50749196336124 -3.045164951543591
1778 1 -10.98420052115978 -25.50037995176653 -3.045152267500132
1779 1 -11.89434871669314 -23.2768556719039 -1.752965009968149
1780 1 -9.17054184470236 -23.26227205288144 -1.752934847550141
1781 1 -10.0814411724348 -21.04037708299319 -0.4607492431609086
1782 1 -7.361764666580379 -21.01678967964451 -0.4606882295156445
1783 1 -8.274236312540657 -18.7950746377599 0.8315001334498295
1784 1 -5.560587275071757 -18.76180832019121 0.8316020902000378
1785 1 -6.476453786887783 -16.53789898227268 2.123803738805777
1786 1 -3.770438960501961 -16.49611775291164 2.123940890938286
1787 1 -11.89288943614686 -25.5036461708088 -5.629533112846783
1788 1 -9.167326229214922 -25.49137705020913 -5.629508721740672
1789 1 -10.07825021858464 -23.26807009512311 -4.337322831033207
1790 1 -7.35593540150788 -23.24828469433686 -4.337274229019302
1791 1 -8.267976448565364 -21.02550838337736 -3.045087372095546
1792 1 -5.550387286277573 -20.99742993894828 -3.045005011550194
1793 1 -6.464728996503467 -18.77348391731303 -1.752810082928032
1794 1 -3.753320412892524 -18.73749258407574 -1.75269321542633
1795 1 -4.67213279026266 -16.51015955034269 -0.4604801156748712
1796 1 -1.96755931725319 -16.46841045036111 -0.4603462113647312
1797 1 -2.89403508602712 -14.23567621518275 0.8318893965019067
1798 1 -0.1951080876294835 -14.19209757646189 0.8320040570178167
1799 1 -1.132719758516448 -11.95327542375279 2.124247659305937
1800 1 1.56413731679015 -11.91244183582502 2.124306501555708
1801 1 -6.455905305191362 -21.00738736730414 -5.629410573367126
1802 1 -3.740282499787366 -20.97633518627743 -5.629312257685006
1803 1 -4.656801414436355 -18.74976319110105 -4.337108612083833
1804 1 -1.947045116167246 -18.71276284431683 -4.336987169101238
1805 1 -2.868942288332697 -16.48216292534025 -3.044764151406257
1806 1 -0.1648299850958992 -16.44184772565915 -3.044643475137399
1807 1 -1.094945898343287 -14.20604484604598 -1.752404569295157
1808 1 1.605470329430787 -14.1660484236533 -1.752317247912738
1809 1 0.6646146307902541 -11.92524470481147 -0.460083035574121
1810 1 3.364957029346348 -11.88904418376494 -0.4600516576091489
1811 1 2.412318915943773 -9.644978401861893 0.8321463668817788
1812 1 5.116842592609075 -9.61465240403481 0.8321245555006207
1813 1 4.153507981985909 -7.369900627064337 2.124262360098911
1814 1 6.865622476288626 -7.345664050399862 2.124211652149276
1815 1 -1.066212064079677 -16.45494981266919 -5.629055792985184
1816 1 1.638277873959305 -16.41689214874613 -5.628953845376023
1817 1 0.7050143642833717 -14.17876404245255 -4.336716846793237
1818 1 3.407517079568073 -14.14243060661378 -4.336655193439759
1819 1 2.464251168246109 -11.90039077415752 -3.044433181931058
1820 1 5.168108346503285 -11.86827263964967 -3.044422672084574
1821 1 4.214617915012335 -9.624112765578385 -1.752241308416087
1822 1 6.923223723676404 -9.597382427513816 -1.752272200536758
1823 1 5.960925940975894 -7.353257005538093 -0.4601464874525898
1824 1 8.676713010142819 -7.331699423755945 -0.4601961932398317
1825 1 7.708181677806282 -5.089380926321212 0.8318763748844475
1826 1 10.43214254066562 -5.071900057872933 0.8318297264615333
1827 1 9.460297008318406 -2.832386373990878 2.12386503888683
1828 1 12.19214330255106 -2.817643954303279 2.123834226231436
1829 1 4.266247328776714 -11.87835391586228 -5.628798269330502
1830 1 6.973467446941623 -11.84975765230731 -5.628802928702159
1831 1 6.01972547057631 -9.605759861938257 -4.336635805499593
1832 1 8.73190400080588 -9.581989316071546 -4.336671823225318
1833 1 7.770901511722391 -7.338491852346521 -3.044554901259048
1834 1 10.48975737336798 -7.319115108492383 -3.044602506771856
1835 1 9.52376835768121 -5.077458151129186 -1.752530479951515
1836 1 12.2498791463913 -5.061477638733416 -1.75257267599112
1837 1 11.28132021512191 -2.822372109027125 -0.46053108328085
1838 1 14.01431833625938 -2.808679417114402 -0.4605585277858979
1839 1 13.04529092758736 -0.5722671040021095 0.831469441095718
1840 1 9.583011853806674 -7.325250965512664 -5.628962031103987
1841 1 12.30444536080056 -7.307674134046524 -5.62900701776826
1842 1 11.34085632342102 -5.066579798057209 -4.336934280692642
1843 1 14.06874650634615 -5.05185994129453 -4.336972527546942
1844 1 13.10314817489517 -2.81308365094252 -3.04492486319706
1845 1 -17.34838118503328 -29.95983770058334 2.123570589604635
1846 1 -14.61950580431765 -29.96278106095252 2.123575796209948
1847 1 -15.52916439174964 -29.96247813566987 -0.4608006187699079
1848 1 -12.8002195597575 -29.96133704244736 -0.4607954452798391
1849 1 -13.71019496987716 -27.7345212822472 0.831393552953352
1850 1 -10.98254367437624 -27.72848907513148 0.8314042873631069
1851 1 -11.89288943614686 -25.5036461708088 2.123591821010217
1852 1 -9.167326229214922 -25.49137705020913 2.123616212116328
1853 1 -13.70984874124015 -29.96239940628029 -3.04517255171482
1854 1 -10.98114611244755 -29.95721958380373 -3.045163306946207
1855 1 -11.89167333161228 -27.73126345620777 -1.752975572108737
1856 1 -9.164683095045632 -27.72080606748967 -1.752955459264003
1857 1 -10.07566985832706 -25.49627255690022 -0.460769251530966
1858 1 -7.351285455719614 -25.47947093473165 -0.4607298847669077
1859 1 -8.263098038952238 -23.25564647991715 0.8314563338273031
1860 1 -5.542474984608326 -23.23173424817834 0.8315233703007041
1861 1 -6.455905305191362 -21.00738736730414 2.123714360489874
1862 1 -3.740282499787366 -20.97633518627743 2.123812676171993
1863 1 -11.89064391258955 -29.95960468017363 -5.629542420321329
1864 1 -9.162471212874145 -29.9505901465187 -5.629525550414659
1865 1 -10.07353895003804 -27.724990373853 -4.33733904596843
1866 1 -7.347493286918791 -27.71056472361696 -4.33730666187647
1867 1 -8.259192549084897 -25.48575426977681 -3.04512064146484
1868 1 -5.536185743636898 -25.46520736031665 -3.045065545443228
1869 1 -6.449061422668008 -23.24028187428969 -1.752876816603882
1870 1 -3.730122465824232 -23.21338018755931 -1.752794369740726
1871 1 -4.645189440184689 -20.98704072981306 -0.4605970523199803
1872 1 -1.931196145555676 -20.95438661153062 -0.4604900382303898
1873 1 -2.850087886482589 -18.7251230060841 0.8317224980772358
1874 1 -0.1412969545131162 -18.68841657139131 0.8318395238699363
1875 1 -1.066212064079677 -16.45494981266919 2.124069140871815
1876 1 1.638277873959305 -16.41689214874613 2.124171088480978
1877 1 -6.443615189847584 -25.47259771527308 -5.629461429557894
1878 1 -3.722036485401192 -25.44916641433004 -5.629392152558285
1879 1 -4.636167196664598 -23.22273660241971 -4.337198961806307
1880 1 -1.918733583549512 -23.1939288770787 -4.337106009624112
1881 1 -2.835631172851782 -20.96541893710734 -3.044901401335894
1882 1 -0.1228083445513342 -20.93229458808648 -3.044792963360001
1883 1 -1.044133583764467 -18.7005027297005 -1.752573004168026
1884 1 1.66435782847201 -18.66498718584002 -1.75246680966187
1885 1 0.7366489486751071 -16.42915146689428 -0.4602344695153782
1886 1 3.442154934206444 -16.39374582404193 -0.4601530662337496
1887 1 2.506296093528579 -14.15394278556006 0.8320781768071761
1888 1 5.211202262147365 -14.1210936293257 0.8321177246461005
1889 1 4.266247328776714 -11.87835391586228 2.124326664526498
1890 1 6.973467446941623 -11.84975765230731 2.124322005154841
1891 1 -1.026935909579594 -20.94332130699994 -5.629203677492426
1892 1 1.685212770499692 -20.9105882290366 -5.629099886940038
1893 1 0.7615174776681251 -18.67656302351473 -4.336874933541834
1894 1 3.470282813001372 -18.64279192414176 -4.336783259884562
1895 1 2.540101168861508 -16.40508775138521 -3.044551755607037
1896 1 5.247061178702307 -16.37244104747961 -3.044490246920151
1897 1 4.309149560245354 -14.13148955543609 -1.752267149430765
1898 1 7.016573985677445 -14.10182403623212 -1.752245612098047
1899 1 6.070522033805169 -11.85875488306702 -0.4600493727952986
1900 1 8.780861597336042 -11.8331669333546 -0.4600646662264563
1901 1 7.827296240586611 -9.589472949194803 0.8320907001845026
1902 1 10.54258069422799 -9.568153276251762 0.8320521839922472
1903 1 9.583011853806674 -7.325250965512664 2.124162902753014
1904 1 12.30444536080056 -7.307674134046524 2.12411791608874
1905 1 4.344467689183208 -16.38286581733595 -5.628882578412892
1906 1 7.053148520719663 -16.35290922350531 -5.628838949395153
1907 1 6.11367780944458 -14.11121476656122 -4.336625161485923
1908 1 8.823601452008303 -14.0843917921907 -4.336617740251529
1909 1 7.876921857336498 -11.84124075685033 -3.044433143387767
1910 1 10.59010133286869 -11.81821394133769 -3.044455627465613
1911 1 9.637010273762456 -9.574893942114153 -1.752309730274277
1912 1 12.35498823518419 -9.555619365131866 -1.752349036534194
1913 1 11.39691290175031 -7.313264273895943 -0.4602425289363645
1914 1 14.1205244748293 -7.297192225443855 -0.4602847122167568
1915 1 13.15918390844995 -5.056576165232769 0.8317895659585832
1916 1 9.685262693654781 -11.82550183598237 -5.628822186518584
1917 1 12.40099868932905 -11.80465687103937 -5.628849322148295
1918 1 11.44858325352954 -9.56173734968422 -4.336710903360851
1919 1 14.16889744298003 -9.544183722713719 -4.336749913241739
1920 1 13.21232488389016 -7.302323157600495 -3.044646100470564
1921 1 -11.89064391258955 -29.95960468017363 2.123582513535672
1922 1 -9.162471212874145 -29.9505901465187 2.123599383442341
1923 1 -10.0717485535605 -29.95420511752486 -0.4607827769356299
1924 1 -7.344342705525008 -29.94169728028954 -0.4607557569370171
1925 1 -8.255996027017465 -27.71598095867144 0.8314302830439113
1926 1 -5.53108017316846 -27.69817435333024 0.8314760398250949
1927 1 -6.443615189847584 -25.47259771527308 2.123663504299105
1928 1 -3.722036485401192 -25.44916641433004 2.123732781298715
1929 1 -8.2533312483458 -29.94640832164668 -3.045141599991737
1930 1 -5.52685953461423 -29.93085292237186 -3.045103201748597
1931 1 -6.439185860765798 -27.70461064581712 -1.752916412311971
1932 1 -3.715477928076409 -27.68408219655716 -1.752857925140935
1933 1 -4.628995238708645 -25.45737296168068 -0.4606673824281819
1934 1 -1.908763124256993 -25.43191089374489 -0.4605871401078676
1935 1 -2.824319704140718 -23.20375106208501 0.8316117505323508
1936 1 -0.1080960328113658 -23.17398746702106 0.8317096586504138
1937 1 -1.026935909579594 -20.94332130699994 2.123921256364573
1938 1 1.685212770499692 -20.9105882290366 2.124025046916962
1939 1 -6.435516337201809 -29.9364977976616 -5.629492909996204
1940 1 -3.710067691823561 -29.91840550426098 -5.629443228294996
1941 1 -4.623178235929146 -27.69131260931712 -4.337254361546931
1942 1 -1.900655429602491 -27.66873679202842 -4.337185183400865
1943 1 -2.815297670879382 -25.44065711150535 -3.044990310650359
1944 1 -0.09622961906457306 -25.41394878268621 -3.044903186456695
1945 1 -1.013335763309922 -23.18398607637146 -1.752698248715879
1946 1 1.702033383716101 -23.15404342331214 -1.752600586308055
1947 1 0.7812279774179238 -20.92136689277633 -0.4603832681926163
1948 1 3.49317378156605 -20.88963128153488 -0.4602884628722352
1949 1 2.567267071074488 -18.65372238482643 0.8319387629599446
1950 1 5.276757744135503 -18.62198685243285 0.8320144894056585
1951 1 4.344467689183208 -16.38286581733595 2.124242355444108
1952 1 7.053148520719663 -16.35290922350531 2.124285984461848
1953 1 -1.00241411140364 -25.42298925344687 -5.629307935379323
1954 1 1.715736869394435 -25.39571142045179 -5.629218141608973
1955 1 0.7970166694832077 -23.16399010335324 -4.337007624214389
1956 1 3.511898753039178 -23.13446389092744 -4.336914456199486
1957 1 2.589183282304083 -20.89999905847877 -3.04469323643038
1958 1 5.301335251995418 -20.8696508058562 -3.044610010092122
1959 1 4.373437323884195 -18.63221073074124 -1.752383047253642
1960 1 7.083981283976014 -18.60261662705231 -1.752323091587456
1961 1 6.149951217662638 -16.36246031632282 -0.4601007997215871
1962 1 8.860486903366169 -16.33502838715914 -0.4600724650203261
1963 1 7.919884811984241 -14.09289249584067 0.8321317455706037
1964 1 10.6322068907753 -14.06857471618135 0.8321284265363449
1965 1 9.685262693654781 -11.82550183598237 2.124302747338416
1966 1 12.40099868932905 -11.80465687103937 2.124275611708704
1967 1 4.397215251524319 -20.87950925696627 -5.629010646932942
1968 1 7.109904035269986 -20.85076887049032 -5.628940128335727
1969 1 6.180266415256586 -18.61212278549062 -4.336715515440678
1970 1 8.892082082352275 -18.58465416758256 -4.336670170959303
1971 1 7.956659484525323 -16.34377121184085 -3.044454601490924
1972 1 10.66908803301741 -16.31865368162462 -3.044438899916768
1973 1 9.727712959934404 -14.0762945670025 -1.752243945526704
1974 1 12.4422875968516 -14.05416982112437 -1.752255230694603
1975 1 11.49535419561609 -11.81127440185707 -0.4600897449936585
1976 1 14.21337670498371 -11.7922938304823 -0.4601196967246228
1977 1 13.26176811540036 -9.549775328700372 0.8320129200467012
1978 1 9.76463060907199 -16.3266621511472 -5.628817256104435
1979 1 12.47892460628295 -16.30363568145853 -5.628811718050757
1980 1 11.53706979227749 -14.06120754105013 -4.336625351988495
1981 1 14.2537303509356 -14.04099731832748 -4.336642398742353
1982 1 13.30701310330149 -11.79833731637595 -3.044484363843582
1983 1 -6.435516337201809 -29.9364977976616 2.123632023860797
1984 1 -3.710067691823561 -29.91840550426098 2.123681705562004
1985 1 -4.618376363258058 -29.92480712748479 -0.4607116275831669
1986 1 -1.893962646145424 -29.9047138608262 -0.4606518970315587
1987 1 -2.807973379617067 -27.67653892640543 0.8315401957708111
1988 1 -0.08652926727778443 -27.65255881101527 0.8316171354767679
1989 1 -1.00241411140364 -25.42298925344687 2.123816998477677
1990 1 1.715736869394435 -25.39571142045179 2.123906792248026
1991 1 -2.801931399650467 -29.91169302063475 -3.045048281491722
1992 1 -0.07849670667806841 -29.89012501663254 -3.044980558947018
1993 1 -0.9935121297663745 -27.66072727569103 -1.752784465574354
1994 1 1.727020227870796 -27.63592133039166 -1.752703057605456
1995 1 0.8098129036148976 -25.40484084187592 -0.460498170544722
1996 1 3.527323609400906 -25.37754549088769 -0.4604095037848412
1997 1 2.60698441166692 -23.1441895768552 0.8318055323807709
1998 1 5.321724470410253 -23.11550756037884 0.831891148714931
1999 1 4.397215251524319 -20.87950925696627 2.124114286924058
2000 1 7.109904035269986 -20.85076887049032 2.124184805521272
2001 1 -0.9861541850314275 -29.89751085676666 -5.629379207516831
2002 1 1.736410727732011 -29.87495759342713 -5.629306006851049
2003 1 0.820309116214327 -27.6442763939039 -4.337105593881222
2004 1 3.540132992733273 -27.61913935938491 -4.337022932858844
2005 1 2.621565957968118 -25.38660115763624 -3.044813522444339
2006 1 5.338714750980884 -25.35971522721425 -3.04472905075025
2007 1 4.416803685045091 -23.12489542263727 -1.752510887680064
2008 1 7.131703585238691 -23.09734255781068 -1.752434715384883
2009 1 6.205557914156401 -20.86006816541651 -0.4602115262152648
2010 1 8.919034218055021 -20.83303163710239 -0.4601537603594819
2011 1 7.987916343194795 -18.59346305786373 0.8320669537238286
2012 1 10.70113266018336 -18.56802980429365 0.8320993484552475
2013 1 9.76463060907199 -16.3266621511472 2.124307677752565
2014 1 12.47892460628295 -16.30363568145853 2.124313215806243
2015 1 4.433032607608279 -25.36857490118864 -5.629131240716748
2016 1 7.150079321077698 -25.34241094638215 -5.629053193165666
2017 1 6.226684176215848 -23.10631864087403 -4.336833392321697
2018 1 8.941993196154717 -23.08006571922436 -4.33676756706457
2019 1 8.014391244794014 -20.84175655051227 -3.044545914956339
2020 1 10.72883285142339 -20.81643339472059 -3.044500231200582
2021 1 9.796485927787511 -18.57618013842034 -1.752284446481118
2022 1 12.51116296452288 -18.55265143483867 -1.752263168428287
2023 1 11.57385469246523 -16.31098429005243 -0.460062136030009
2024 1 14.28994483250338 -16.28983064096947 -0.4600646019296657
2025 1 13.34784593014602 -14.04743983099304 0.8321140177859081
2026 1 9.82384491819932 -20.82459198276443 -5.628888519365114
2027 1 12.53936769376323 -20.80093508006241 -5.628853833177819
2028 1 11.60602480111422 -18.56019110260632 -4.336643565221621
2029 1 14.32217212941714 -18.53841776874487 -4.336631602900532
2030 1 13.38429064645901 -16.29659013767477 -3.044437612507291
2031 1 -0.9861541850314275 -29.89751085676666 2.123745726340169
2032 1 1.736410727732011 -29.87495759342713 2.12381892700595
2033 1 0.8290208068737872 -29.88259515102933 -0.4605811065862928
2034 1 3.550862018618167 -29.85949127913317 -0.460505058993318
2035 1 2.633622063357684 -27.62753110603201 0.8316995532863036
2036 1 5.352955366934749 -27.60246704359899 0.8317806375887005
2037 1 4.433032607608279 -25.36857490118864 2.123993693140251
2038 1 7.150079321077698 -25.34241094638215 2.124071740691334
2039 1 2.643686440017895 -29.8672460084073 -3.044905610079089
2040 1 5.364970795850049 -29.84396181295803 -3.044829196085198
2041 1 4.446571398306263 -27.61077594149002 -1.752620863383579
2042 1 7.16562939382287 -27.58610038729604 -1.752543632377415
2043 1 6.244390603926133 -25.3509880240851 -0.4603280179235678
2044 1 8.961564296027403 -25.32576062349533 -0.4602578172887526
2045 1 8.036801181875502 -23.08858934456312 0.8319622074148254
2046 1 10.75271468106746 -23.06372048129751 0.8320175401311802
2047 1 9.82384491819932 -20.82459198276443 2.124236414491885
2048 1 12.53936769376323 -20.80093508006241 2.124271100679181
2049 1 4.457951935217203 -29.85172146414174 -5.629229483442041
2050 1 7.178853107272445 -29.82856037692289 -5.629154854467736
2051 1 6.259302436443551 -27.59423537660672 -4.336943528355093
2052 1 8.978285485795073 -27.57018336204581 -4.336871822391324
2053 1 8.055798534759763 -25.33399813904937 -3.044654795318181
2054 1 10.77329170512377 -25.3098421462801 -3.044593172499509
2055 1 9.847293691127611 -23.07177558483252 -1.752374156316211
2056 1 12.56395680163983 -23.04831207996966 -1.752328932879809
2057 1 11.63400532412072 -20.80855009012181 -0.4601137272318927
2058 1 14.35067522707393 -20.78647782642453 -0.4600887624079895
2059 1 13.41654617159221 -18.54539795067665 0.8321157507415711
2060 1 9.86739105977871 -25.31770666949134 -5.628987227689498
2061 1 12.58535858403353 -25.29469479555462 -5.628934368976335
2062 1 11.65826626993767 -23.05589998824907 -4.33671736181582
2063 1 14.37578020039209 -23.03381970296093 -4.336681530985724
2064 1 13.44492360781695 -20.79358049028624 -3.044470570588628
2065 1 4.457951935217203 -29.85172146414174 2.12389545041496
2066 1 7.178853107272445 -29.82856037692289 2.123970079389264
2067 1 6.271933112198555 -29.83623483002921 -0.4604292936849499
2068 1 8.992620650221236 -29.81343609977697 -0.4603581792424591
2069 1 8.071952121336581 -27.57807849846376 0.8318552776931443
2070 1 10.79103811081408 -27.55481564053378 0.8319203619995095
2071 1 9.86739105977871 -25.31770666949134 2.124137706167502
2072 1 12.58535858403353 -25.29469479555462 2.124190564880664
2073 1 8.08574455473766 -29.82095580350397 -3.04475613615005
2074 1 10.80637610932848 -29.79870046107438 -3.044689820196591
2075 1 9.88464326569042 -27.5624261163691 -1.752475133452251
2076 1 12.60398389529832 -27.54006068383474 -1.752417269235429
2077 1 11.67927758299538 -25.30217084864409 -0.460200581359391
2078 1 14.39783871885989 -25.28032921350222 -0.4601562760812556
2079 1 13.469793015288 -23.04095343489194 0.8320579632910581
2080 1 9.899493912154105 -29.80601406116138 -5.629086006082876
2081 1 12.62021036374852 -29.78443260741254 -5.629025351658731
2082 1 11.69748152903637 -27.54735880061472 -4.336810300760032
2083 1 14.41720148037755 -27.52595337529242 -4.336759853893398
2084 1 13.49154322072874 -25.28741450047767 -3.044544636287555
2085 1 9.899493912154105 -29.80601406116138 2.124038927774123
2086 1 12.62021036374852 -29.78443260741254 2.124099582198269
2087 1 11.71327821204805 -29.79150422577285 -0.4602946106183943
2088 1 14.43420120177623 -29.77068486124646 -0.4602401130328142
2089 1 13.51055447823135 -27.53292481809872 0.8319745210461056
2090 1 13.52718186996874 -29.77749135219172 -3.044632202747968
