bcc crystal a0=3.1652 x=[-1.0, -1.0, 2.0] y=[1.0, -1.0, 0.0] z=[1.0, 1.0, 1.0] (generated by make_crystal.py)

1905 atoms
1 atom types

-30 30 xlo xhi
-30 30 ylo yhi
-4.1 4.1 zlo zhi

Masses

1 183.84


Atoms # atomic

1 1 26.31703407088101 -29.99001714624585 -2.620152127143063
2 1 26.31708480599756 -25.51384960869619 -2.585051055214104
3 1 22.44044642119995 -27.75183719155919 -2.634165234695098
4 1 25.02485829733534 -27.75190465727633 -3.52680815202798
5 1 25.02485829733534 -27.75190465727633 -0.7856645439689804
6 1 18.56377471270029 -29.98978276268466 -2.685840869814365
7 1 21.14820248398894 -29.98987314709704 -3.575788240535861
8 1 21.14820248398894 -29.98987314709704 -0.834644632476861
9 1 23.73262231367395 -29.9899510376156 -1.726504534505149
10 1 23.73262231367395 -29.9899510376156 1.014639073553851
11 1 26.31703407088101 -29.99001714624585 0.120991480914937
12 1 26.31703407088101 -29.99001714624585 2.862135088973937
13 1 26.31711563813158 -21.03767334185253 -2.544242082251377
14 1 22.44050873659658 -23.275685963238 -2.59592357134265
15 1 25.02490797259071 -23.27574051115834 -3.488741648325238
16 1 25.02490797259071 -23.27574051115834 -0.7475980402662387
17 1 18.56384922814929 -25.51364189533733 -2.651751705435696
18 1 21.14827167739623 -25.51372568201364 -3.540957538195341
19 1 21.14827167739623 -25.51372568201364 -0.7998139301363417
20 1 23.73268323361382 -25.51379420477698 -1.691369378642522
21 1 23.73268323361382 -25.51379420477698 1.049774229416478
22 1 26.31708480599756 -25.51384960869619 0.1560925528438954
23 1 26.31708480599756 -25.51384960869619 2.897236160902896
24 1 14.68715551879738 -27.75155124465797 -2.710247911783301
25 1 17.27159462048277 -27.75166102815453 -3.59630868841979
26 1 17.27159462048277 -27.75166102815453 -0.8551650803607902
27 1 19.85602519578097 -27.75175634192328 -1.743563586338969
28 1 19.85602519578097 -27.75175634192328 0.9975800217200311
29 1 22.44044642119995 -27.75183719155919 0.106978373362902
30 1 22.44044642119995 -27.75183719155919 2.848121981421902
31 1 25.02485829733534 -27.75190465727633 1.955479064089019
32 1 10.81045523155117 -29.98944599686635 -2.769428283318321
33 1 13.39489918781414 -29.98956661396538 -3.653197376203441
34 1 13.39489918781414 -29.98956661396538 -0.9120537681444414
35 1 15.97933977083629 -29.98968005646718 -1.797908115331655
36 1 15.97933977083629 -29.98968005646718 0.9432354927273452
37 1 18.56377471270029 -29.98978276268466 0.0553027382436348
38 1 18.56377471270029 -29.98978276268466 2.796446346302635
39 1 21.14820248398894 -29.98987314709704 1.906498975581139
40 1 23.73262231367395 -29.9899510376156 3.755782681611851
41 1 26.31710476935417 -16.56147777684011 -2.49711682043761
42 1 22.44055074249962 -18.79952680229129 -2.550390742310662
43 1 25.02493046706684 -18.79956388506237 -3.444234027902552
44 1 25.02493046706684 -18.79956388506237 -0.7030904198435521
45 1 18.56392585378071 -21.03751106742546 -2.609943202426924
46 1 21.14833449428588 -21.03758006876206 -3.499070164354711
47 1 21.14833449428588 -21.03758006876206 -0.7579265562957114
48 1 23.73273028531006 -21.03763297486026 -1.649861865765998
49 1 23.73273028531006 -21.03763297486026 1.091281742293003
50 1 26.31711563813158 -21.03767334185253 0.196901525806623
51 1 26.31711563813158 -21.03767334185253 2.938045133865623
52 1 14.68723809728778 -23.2754238317134 -2.674391640765263
53 1 17.27167481043832 -23.27553027321714 -3.559030448897211
54 1 17.27167481043832 -23.27553027321714 -0.8178868408382116
55 1 19.85609815394485 -23.27561684983263 -1.705540961035763
56 1 19.85609815394485 -23.27561684983263 1.035602647023238
57 1 22.44050873659658 -23.275685963238 0.1452200367153498
58 1 22.44050873659658 -23.275685963238 2.88636364477435
59 1 25.02490797259071 -23.27574051115834 1.993545567791761
60 1 10.81051992406 -25.51329040617393 -2.741315933921817
61 1 13.39497181410969 -25.51342337075631 -3.622353830648227
62 1 13.39497181410969 -25.51342337075631 -0.8812102225892277
63 1 15.97941565906402 -25.51354122890725 -1.76510893623465
64 1 15.97941565906402 -25.51354122890725 0.9760346718243503
65 1 18.56384922814929 -25.51364189533733 0.08939190262230451
66 1 18.56384922814929 -25.51364189533733 2.830535510681305
67 1 21.14827167739623 -25.51372568201364 1.941329677921658
68 1 23.73268323361382 -25.51379420477698 3.790917837474479
69 1 6.93381011173138 -27.75116715612509 -2.807678078545653
70 1 9.518260098517196 -27.75129820601685 -3.686548210589851
71 1 9.518260098517196 -27.75129820601685 -0.9454046025308517
72 1 12.10270972981938 -27.75142881300834 -1.826610200455903
73 1 12.10270972981938 -27.75142881300834 0.9145334076030973
74 1 14.68715551879738 -27.75155124465797 0.03089569627469918
75 1 14.68715551879738 -27.75155124465797 2.772039304333699
76 1 17.27159462048277 -27.75166102815453 1.88597852769721
77 1 19.85602519578097 -27.75175634192328 3.738723629778031
78 1 3.057129834975216 -29.98911199373229 -2.870585874768018
79 1 5.641568201005041 -29.98920947183463 -3.74891342140483
80 1 5.641568201005041 -29.98920947183463 -1.00776981334583
81 1 8.226010660102045 -29.98932416282803 -1.887674264135718
82 1 8.226010660102045 -29.98932416282803 0.8534693439232826
83 1 10.81045523155117 -29.98944599686635 -0.02828467526032108
84 1 10.81045523155117 -29.98944599686635 2.712858932798679
85 1 13.39489918781414 -29.98956661396538 1.829089839913558
86 1 15.97933977083629 -29.98968005646718 3.684379100785345
87 1 26.31702453649427 -12.08525445284642 -2.443455257148104
88 1 22.44054184674269 -14.32334404420042 -2.496576318813272
89 1 25.02489838656053 -14.32336279619074 -3.392684636021683
90 1 25.02489838656053 -14.32336279619074 -0.6515410279626831
91 1 18.56398378746127 -16.56137533011837 -2.558545687086963
92 1 21.14836770246086 -16.56142157949288 -3.448788684573417
93 1 21.14836770246086 -16.56142157949288 -0.7076450765144169
94 1 23.73274017000213 -16.56145438792765 -1.601060005192929
95 1 23.73274017000213 -16.56145438792765 1.140083602866071
96 1 26.31710476935417 -16.56147777684011 0.2440267876203907
97 1 26.31710476935417 -16.56147777684011 2.985170395679391
98 1 14.68733167235466 -18.79931794393985 -2.628661114513243
99 1 17.27175462566558 -18.7994087129305 -3.512672376056759
100 1 17.27175462566558 -18.7994087129305 -0.7715287679977593
101 1 19.85615989409127 -18.79947656821514 -1.659329974480905
102 1 19.85615989409127 -18.79947656821514 1.081813633578095
103 1 22.44055074249962 -18.79952680229129 0.1907528657473382
104 1 22.44055074249962 -18.79952680229129 2.931896473806338
105 1 25.02493046706684 -18.79956388506237 2.038053188214448
106 1 10.81060671048295 -21.03717156943028 -2.704433367674958
107 1 13.39506229018959 -21.03730945984914 -3.582823875553961
108 1 13.39506229018959 -21.03730945984914 -0.8416802674949613
109 1 15.97950220216512 -21.03742205278603 -1.724015329351103
110 1 15.97950220216512 -21.03742205278603 1.017128278707897
111 1 18.56392585378071 -21.03751106742546 0.1312004056310763
112 1 18.56392585378071 -21.03751106742546 2.872344013690077
113 1 21.14833449428588 -21.03758006876206 1.983217051762288
114 1 23.73273028531006 -21.03763297486026 3.832425350351003
115 1 6.933865427917175 -23.27499489939311 -2.781713562762796
116 1 9.518329669528304 -23.27515121693328 -3.656214604076703
117 1 9.518329669528304 -23.27515121693328 -0.9150709960177033
118 1 12.10278880755541 -23.27529669217318 -1.793017150838809
119 1 12.10278880755541 -23.27529669217318 0.9481264572201914
120 1 14.68723809728778 -23.2754238317134 0.06675196729273686
121 1 14.68723809728778 -23.2754238317134 2.807895575351737
122 1 17.27167481043832 -23.27553027321714 1.923256767219788
123 1 19.85609815394485 -23.27561684983263 3.776746255081238
124 1 3.057155362115223 -25.51288061284043 -2.855849037340332
125 1 5.64160740093282 -25.51300660176245 -3.728865967654623
126 1 5.64160740093282 -25.51300660176245 -0.9877223595956237
127 1 8.226063623710521 -25.51314805978924 -1.863151043055913
128 1 8.226063623710521 -25.51314805978924 0.8779925650030872
129 1 10.81051992406 -25.51329040617393 -0.0001723258638171576
130 1 10.81051992406 -25.51329040617393 2.740971282195183
131 1 13.39497181410969 -25.51342337075631 1.859933385468772
132 1 15.97941565906402 -25.51354122890725 3.717178279882351
133 1 -0.8195154949337726 -27.75088810344918 -2.923207622664756
134 1 1.764921225929195 -27.75094942789134 -3.797026305269551
135 1 1.764921225929195 -27.75094942789134 -1.055882697210552
136 1 4.34936310952577 -27.75104659084248 -1.930914790944802
137 1 4.34936310952577 -27.75104659084248 0.8102288171141976
138 1 6.93381011173138 -27.75116715612509 -0.06653447048765287
139 1 6.93381011173138 -27.75116715612509 2.674609137571347
140 1 9.518260098517196 -27.75129820601685 1.795739005527148
141 1 12.10270972981938 -27.75142881300834 3.655677015661098
142 1 -4.696163228528075 -29.98901382267344 -2.981981326137377
143 1 -2.111734068531602 -29.98900780933184 -3.858193452039699
144 1 -2.111734068531602 -29.98900780933184 -1.117049843980699
145 1 0.4726961246931038 -29.98904199095218 -1.993455267395063
146 1 0.4726961246931038 -29.98904199095218 0.7476883406639369
147 1 3.057129834975216 -29.98911199373229 -0.1294422667100183
148 1 3.057129834975216 -29.98911199373229 2.611701341348982
149 1 5.641568201005041 -29.98920947183463 1.73337379471217
150 1 8.226010660102045 -29.98932416282803 3.594612951981283
151 1 26.31685243513461 -7.609003339622747 -2.383750034290526
152 1 22.44044061688863 -9.847124673695452 -2.43411126271805
153 1 25.02478019900692 -9.847130023100876 -3.334072045651926
154 1 25.02478019900692 -9.847130023100876 -0.5929284375929265
155 1 18.56397874909216 -12.08521054005279 -2.495839276156324
156 1 21.14833117061932 -12.08523173106356 -3.389098433930887
157 1 21.14833117061932 -12.08523173106356 -0.6479548258718877
158 1 23.73267881164708 -12.08524543663448 -1.544427750847609
159 1 23.73267881164708 -12.08524543663448 1.196715857211391
160 1 26.31702453649427 -12.08525445284642 0.2976883509098964
161 1 26.31702453649427 -12.08525445284642 3.038831958968896
162 1 14.68741278437932 -14.32321537942258 -2.569870934267329
163 1 17.27180406568856 -14.32327589422092 -3.454976271551627
164 1 17.27180406568856 -14.32327589422092 -0.7138326634926272
165 1 19.85617848665606 -14.32331656301558 -1.60339889702759
166 1 19.85617848665606 -14.32331656301558 1.13774471103141
167 1 22.44054184674269 -14.32334404420042 0.2445672892447275
168 1 22.44054184674269 -14.32334404420042 2.985710897303728
169 1 25.02489838656053 -14.32336279619074 2.089602580095317
170 1 10.8107179958633 -16.56109350252556 -2.654793844914072
171 1 13.39516343529756 -16.561218800212 -3.531353264117406
172 1 13.39516343529756 -16.561218800212 -0.7902096560584067
173 1 15.97958399056831 -16.56131010768384 -1.672108143712057
174 1 15.97958399056831 -16.56131010768384 1.069035464346943
175 1 18.56398378746127 -16.56137533011837 0.1825979209710366
176 1 18.56398378746127 -16.56137533011837 2.923741529030037
177 1 21.14836770246086 -16.56142157949288 2.033498531543583
178 1 23.73274017000213 -16.56145438792765 3.881227210924072
179 1 6.933947168018668 -18.79886936067465 -2.745727285880198
180 1 9.518425828312861 -18.79904852311941 -3.615325428742437
181 1 9.518425828312861 -18.79904852311941 -0.8741818206834377
182 1 12.10288871148245 -18.79919896005276 -1.748993445613551
183 1 12.10288871148245 -18.79919896005276 0.9921501624454492
184 1 14.68733167235466 -18.79931794393985 0.1124824935457566
185 1 14.68733167235466 -18.79931794393985 2.853626101604757
186 1 17.27175462566558 -18.7994087129305 1.96961484006024
187 1 19.85615989409127 -18.79947656821514 3.822957241636095
188 1 3.057193102147858 -21.03667177611984 -2.835265649013077
189 1 5.641664978323385 -21.0368378083449 -3.701366275642579
190 1 5.641664978323385 -21.0368378083449 -0.9602226675835792
191 1 8.226138821968419 -21.03701099296121 -1.830225078792568
192 1 8.226138821968419 -21.03701099296121 0.9109185292664318
193 1 10.81060671048295 -21.03717156943028 0.03671024038304177
194 1 10.81060671048295 -21.03717156943028 2.777853848442042
195 1 13.39506229018959 -21.03730945984914 1.899463340563039
196 1 15.97950220216512 -21.03742205278603 3.758271886765897
197 1 -0.8195056881136487 -23.27462648444635 -2.916628912436787
198 1 1.764944357163441 -23.27471169092058 -3.783115135700021
199 1 1.764944357163441 -23.27471169092058 -1.041971527641022
200 1 4.349401977593883 -23.27484175640809 -1.910457613701322
201 1 4.349401977593883 -23.27484175640809 0.8306859943576781
202 1 6.933865427917175 -23.27499489939311 -0.04056995470479619
203 1 6.933865427917175 -23.27499489939311 2.700573653354204
204 1 9.518329669528304 -23.27515121693328 1.826072612040297
205 1 12.10278880755541 -23.27529669217318 3.689270065278191
206 1 -4.696169440543214 -25.51274828686577 -2.986222441498269
207 1 -2.111730726518173 -25.51274000926646 -3.855883378928901
208 1 -2.111730726518173 -25.51274000926646 -1.114739770869901
209 1 0.4727096366823562 -25.51278682434078 -1.984713442882972
210 1 0.4727096366823562 -25.51278682434078 0.7564301651760281
211 1 3.057155362115223 -25.51288061284043 -0.1147054292823319
212 1 3.057155362115223 -25.51288061284043 2.626438178776668
213 1 5.64160740093282 -25.51300660176245 1.753421248462376
214 1 8.226063623710521 -25.51314805978924 3.619136173061087
215 1 -8.572821623343993 -27.75097489706165 -3.043661197405712
216 1 -5.98838352199329 -27.75090185381204 -3.917778669457062
217 1 -5.98838352199329 -27.75090185381204 -1.176635061398063
218 1 -3.403949237251044 -27.75087140542605 -2.049972854964915
219 1 -3.403949237251044 -27.75087140542605 0.6911707530940849
220 1 -0.8195154949337726 -27.75088810344918 -0.1820640146067559
221 1 -0.8195154949337726 -27.75088810344918 2.559079593452244
222 1 1.764921225929195 -27.75094942789134 1.685260910847448
223 1 4.34936310952577 -27.75104659084248 3.551372425172198
224 1 -12.44946897307114 -29.98924202671978 -3.090355540468384
225 1 -9.86502927666927 -29.98913836408451 -3.969116842987452
226 1 -9.86502927666927 -29.98913836408451 -1.227973234928452
227 1 -7.280594243113899 -29.98905924831445 -2.105413984331931
228 1 -7.280594243113899 -29.98905924831445 0.6357296237270691
229 1 -4.696163228528075 -29.98901382267344 -0.2408377180793775
230 1 -4.696163228528075 -29.98901382267344 2.500305889979623
231 1 -2.111734068531602 -29.98900780933184 1.624093764077301
232 1 0.4726961246931038 -29.98904199095218 3.488831948721937
233 1 26.31659100492185 -3.132735736733921 -2.31947953635523
234 1 22.44021599789965 -5.370870339310771 -2.363884821665104
235 1 25.02455831051699 -5.370870545515465 -3.269360720084938
236 1 25.02455831051699 -5.370870545515465 -0.5282171120259384
237 1 18.56384488869447 -7.608995374768275 -2.421157083310418
238 1 21.14817680038166 -7.608999595536392 -3.319976055151087
239 1 21.14817680038166 -7.608999595536392 -0.5788324470920875
240 1 23.73251262123571 -7.609001976048067 -1.480287191812731
241 1 23.73251262123571 -7.609001976048067 1.260856416246269
242 1 26.31685243513461 -7.609003339622747 0.3573935737674742
243 1 26.31685243513461 -7.609003339622747 3.098537181826474
244 1 14.68741535113735 -9.847077410093918 -2.494775381998703
245 1 17.27176152347883 -9.84710170549827 -3.384091626754222
246 1 17.27176152347883 -9.84710170549827 -0.642948018695222
247 1 19.85610181439773 -9.847116022173468 -1.536806973944571
248 1 19.85610181439773 -9.847116022173468 1.204336634114429
249 1 22.44044061688863 -9.847124673695452 0.30703234533995
250 1 22.44044061688863 -9.847124673695452 3.04817595339895
251 1 25.02478019900692 -9.847130023100876 2.148215170465074
252 1 10.81083307765598 -12.08503925190325 -2.58663230421356
253 1 13.39523841075363 -12.08512418063575 -3.463862832744679
254 1 13.39523841075363 -12.08512418063575 -0.7227192246856795
255 1 15.97961689416671 -12.08517723210768 -1.60666416577101
256 1 15.97961689416671 -12.08517723210768 1.13447944228799
257 1 18.56397874909216 -12.08521054005279 0.2453043319016762
258 1 18.56397874909216 -12.08521054005279 2.986447939960676
259 1 21.14833117061932 -12.08523173106356 2.093188782186112
260 1 23.73267881164708 -12.08524543663448 3.937859465269391
261 1 6.934069798230784 -14.32281221936209 -2.693467259007382
262 1 9.518550983307609 -14.3229947282605 -3.558481213455606
263 1 9.518550983307609 -14.3229947282605 -0.8173376053966065
264 1 12.10299747481518 -14.32312559028926 -1.690260773371167
265 1 12.10299747481518 -14.32312559028926 1.050882834687833
266 1 14.68741278437932 -14.32321537942258 0.1712726737916708
267 1 14.68741278437932 -14.32321537942258 2.912416281850671
268 1 17.27180406568856 -14.32327589422092 2.027310944565373
269 1 19.85617848665606 -14.32331656301558 3.87888831908941
270 1 3.057253859024469 -16.56050604790333 -2.804678142821309
271 1 5.641754378328359 -16.56072574272625 -3.661721364177485
272 1 5.641754378328359 -16.56072574272625 -0.9205777561184849
273 1 8.226246618719271 -16.56092833291146 -1.78434783734492
274 1 8.226246618719271 -16.56092833291146 0.9567957707140802
275 1 10.8107179958633 -16.56109350252556 0.08634976314392778
276 1 10.8107179958633 -16.56109350252556 2.827493371202928
277 1 13.39516343529756 -16.561218800212 1.950933951999593
278 1 15.97958399056831 -16.56131010768384 3.810179072404943
279 1 -0.8194910435859479 -18.79837040245094 -2.906960265150112
280 1 1.764979761076309 -18.79849586205983 -3.76293294435331
281 1 1.764979761076309 -18.79849586205983 -1.021789336294311
282 1 4.349461504983162 -18.7986754849856 -1.881376873749923
283 1 4.349461504983162 -18.7986754849856 0.8597667343090771
284 1 6.933947168018668 -18.79886936067465 -0.004583677822198207
285 1 6.933947168018668 -18.79886936067465 2.736559930236802
286 1 9.518425828312861 -18.79904852311941 1.866961787374562
287 1 12.10288871148245 -18.79919896005276 3.733293770503449
288 1 -4.696178336419222 -21.03648499325325 -2.992252163960491
289 1 -2.111725955475042 -21.03647288677931 -3.852592982042615
290 1 -2.111725955475042 -21.03647288677931 -1.111449373983615
291 1 0.472729282569798 -21.03654073662087 -1.972344333292664
292 1 0.472729282569798 -21.03654073662087 0.7687992747663357
293 1 3.057193102147858 -21.03667177611984 -0.0941220409550767
294 1 3.057193102147858 -21.03667177611984 2.647021567103923
295 1 5.641664978323385 -21.0368378083449 1.780920940474421
296 1 8.226138821968419 -21.03701099296121 3.652062137324432
297 1 -8.572849187350137 -23.27474634114953 -3.059604767270637
298 1 -5.988397004511104 -23.27464578652651 -3.926587137987017
299 1 -5.988397004511104 -23.27464578652651 -1.185443529928017
300 1 -3.403950895151404 -23.27460285562522 -2.051122957196359
301 1 -3.403950895151404 -23.27460285562522 0.6900206508626405
302 1 -0.8195056881136487 -23.27462648444635 -0.1754853043787872
303 1 -0.8195056881136487 -23.27462648444635 2.565658303680213
304 1 1.764944357163441 -23.27471169092058 1.699172080416978
305 1 4.349401977593883 -23.27484175640809 3.571829602415678
306 1 -12.44951231807481 -25.51304746817937 -3.111818777279149
307 1 -9.86505871786423 -25.51291519858098 -3.985505438141836
308 1 -9.86505871786423 -25.51291519858098 -1.244361830082836
309 1 -7.280611092313988 -25.51281018697666 -2.115988349980612
310 1 -7.280611092313988 -25.51281018697666 0.6251552580783879
311 1 -4.696169440543214 -25.51274828686577 -0.2450788334402687
312 1 -4.696169440543214 -25.51274828686577 2.496064774618731
313 1 -2.111730726518173 -25.51274000926646 1.626403837188098
314 1 0.4727096366823562 -25.51278682434078 3.497573773234028
315 1 -16.32616352794957 -27.75133724168203 -3.152403313932456
316 1 -13.74171328445759 -27.75120530676818 -4.031949898997031
317 1 -13.74171328445759 -27.75120530676818 -1.290806290938032
318 1 -11.15726511642404 -27.75108034672446 -2.168162948265091
319 1 -11.15726511642404 -27.75108034672446 0.5729806597939096
320 1 -8.572821623343993 -27.75097489706165 -0.3025175893467125
321 1 -8.572821623343993 -27.75097489706165 2.438626018712288
322 1 -5.98838352199329 -27.75090185381204 1.564508546659937
323 1 -3.403949237251044 -27.75087140542605 3.432314361152085
324 1 -20.20280019922276 -29.98960109806837 -3.184341636536446
325 1 -17.61835697593292 -29.98948208136903 -4.068727649593536
326 1 -17.61835697593292 -29.98948208136903 -1.327584041534537
327 1 -15.03391229891073 -29.98935982830242 -2.209924683973879
328 1 -15.03391229891073 -29.98935982830242 0.5312189240851211
329 1 -12.44946897307114 -29.98924202671978 -0.3492119324103843
330 1 -12.44946897307114 -29.98924202671978 2.391931675648616
331 1 -9.86502927666927 -29.98913836408451 1.513170373129547
332 1 -7.280594243113899 -29.98905924831445 3.376873231785069
333 1 26.31628198304599 1.343533671713858 -4.995110953443341
334 1 22.43988607802298 -0.8946006653738534 -2.288534893427498
335 1 25.02425400783863 -0.8946006453419791 -3.200740327033174
336 1 25.02425400783863 -0.8946006453419791 -0.4595967189741745
337 1 18.56353989184731 -3.132736109217843 -2.336268081756529
338 1 21.14788546071305 -3.132735978764006 -3.24321037227425
339 1 21.14788546071305 -3.132735978764006 -0.50206676421525
340 1 23.73223624491223 -3.132735850931535 -1.410296439486465
341 1 23.73223624491223 -3.132735850931535 1.330847168572535
342 1 26.31659100492185 -3.132735736733921 0.4216640717027696
343 1 26.31659100492185 -3.132735736733921 3.16280767976177
344 1 14.68722618591653 -5.370866134947247 -2.402044933816168
345 1 17.27154887701838 -5.370868666185723 -3.300012830771827
346 1 17.27154887701838 -5.370868666185723 -0.5588692227128274
347 1 19.85587915613575 -5.370869823023734 -1.460179436447417
348 1 19.85587915613575 -5.370869823023734 1.280964171611583
349 1 22.44021599789965 -5.370870339310771 0.3772587863928965
350 1 22.44021599789965 -5.370870339310771 3.118402394451897
351 1 25.02455831051699 -5.370870545515465 2.212926496032062
352 1 10.81085137173976 -7.608944957047336 -2.49310669396535
353 1 13.39518714086265 -7.608973254762171 -3.376615199304141
354 1 13.39518714086265 -7.608973254762171 -0.6354715912451413
355 1 15.97951595568501 -7.60898769840245 -1.525877303145143
356 1 15.97951595568501 -7.60898769840245 1.215266304913857
357 1 18.56384488869447 -7.608995374768275 0.319986524747582
358 1 18.56384488869447 -7.608995374768275 3.061130132806582
359 1 21.14817680038166 -7.608999595536392 2.162311160965912
360 1 23.73251262123571 -7.609001976048067 4.002000024304269
361 1 6.934232208884493 -9.846827365812004 -2.6138653960981
362 1 9.518667582186646 -9.846960225230577 -3.477692297539567
363 1 9.518667582186646 -9.846960225230577 -0.7365486894805668
364 1 12.10305525893844 -9.847035144793107 -1.611542323426259
365 1 12.10305525893844 -9.847035144793107 1.129601284632741
366 1 14.68741535113735 -9.847077410093918 0.2463682260592971
367 1 14.68741535113735 -9.847077410093918 2.987511834118298
368 1 17.27176152347883 -9.84710170549827 2.098195589362778
369 1 19.85610181439773 -9.847116022173468 3.945480242172429
370 1 3.057362848393267 -12.08442808317044 -2.75516212539541
371 1 5.641896550173204 -12.08470220049992 -3.600999002943335
372 1 5.641896550173204 -12.08470220049992 -0.8598553948843348
373 1 8.226388719656033 -12.08490495148671 -1.717952074342474
374 1 8.226388719656033 -12.08490495148671 1.023191533716526
375 1 10.81083307765598 -12.08503925190325 0.1545113038444397
376 1 10.81083307765598 -12.08503925190325 2.89565491190344
377 1 13.39523841075363 -12.08512418063575 2.01842438337232
378 1 15.97961689416671 -12.08517723210768 3.875623050345991
379 1 -0.8194667381620939 -14.32212738040184 -2.891380277420515
380 1 1.765040262391172 -14.32232676586384 -3.731198030013402
381 1 1.765040262391172 -14.32232676586384 -0.9900544219544027
382 1 4.349559916685767 -14.32257919790634 -1.837299181286278
383 1 4.349559916685767 -14.32257919790634 0.9038444267727221
384 1 6.934069798230784 -14.32281221936209 0.04767634905061818
385 1 6.934069798230784 -14.32281221936209 2.788819957109618
386 1 9.518550983307609 -14.3229947282605 1.923806002661393
387 1 12.10299747481518 -14.32312559028926 3.792026442745833
388 1 -4.696192158306822 -16.56022660534488 -3.001500668927557
389 1 -2.111718587344939 -16.56020725938954 -3.847532158424668
390 1 -2.111718587344939 -16.56020725938954 -1.106388550365668
391 1 0.4727605254328875 -16.56031376571672 -1.953541521513378
392 1 0.4727605254328875 -16.56031376571672 0.7876020865456225
393 1 3.057253859024469 -16.56050604790333 -0.06353453476330923
394 1 3.057253859024469 -16.56050604790333 2.677609073295691
395 1 5.641754378328359 -16.56072574272625 1.820565851939515
396 1 8.226246618719271 -16.56092833291146 3.69793937877208
397 1 -8.572891526976761 -18.79854506271821 -3.08260891034893
398 1 -5.98841728890521 -18.79839935418085 -3.939491169816818
399 1 -5.98841728890521 -18.79839935418085 -1.198347561757818
400 1 -3.403953338053893 -18.79833447838497 -2.052816862287193
401 1 -3.403953338053893 -18.79833447838497 0.6883267457718073
402 1 -0.8194910435859479 -18.79837040245094 -0.1658166570921123
403 1 -0.8194910435859479 -18.79837040245094 2.575326950966888
404 1 1.764979761076309 -18.79849586205983 1.719354271763689
405 1 4.349461504983162 -18.7986754849856 3.600910342367077
406 1 -12.4495755156411 -21.03688922681696 -3.141080386242444
407 1 -9.865102279500707 -21.03671845022008 -4.008281813292339
408 1 -9.865102279500707 -21.03671845022008 -1.267138205233339
409 1 -7.280635741347847 -21.0365739587726 -2.130899600924653
410 1 -7.280635741347847 -21.0365739587726 0.6102440071343467
411 1 -4.696178336419222 -21.03648499325325 -0.2511085559024911
412 1 -4.696178336419222 -21.03648499325325 2.490035052156509
413 1 -2.111725955475042 -21.03647288677931 1.629694234074385
414 1 0.472729282569798 -21.03654073662087 3.509942882824336
415 1 -16.32623647842231 -23.27519574383166 -3.183812846010307
416 1 -13.74177316423387 -23.27504145808207 -4.059326198402141
417 1 -13.74177316423387 -23.27504145808207 -1.318182590343142
418 1 -11.15730888408362 -23.27488551709476 -2.19036464248868
419 1 -11.15730888408362 -23.27488551709476 0.5507789655703204
420 1 -8.572849187350137 -23.27474634114953 -0.3184611592126376
421 1 -8.572849187350137 -23.27474634114953 2.422682448846363
422 1 -5.988397004511104 -23.27464578652651 1.555700078129983
423 1 -3.403950895151404 -23.27460285562522 3.431164258920641
424 1 -20.20287428534337 -25.51345991899302 -3.215840296763786
425 1 -17.61842445918056 -25.51333099080562 -4.097734908983124
426 1 -17.61842445918056 -25.51333099080562 -1.356591300924124
427 1 -15.03396902511852 -25.51319054506945 -2.235602634197839
428 1 -15.03396902511852 -25.51319054506945 0.505540973861161
429 1 -12.44951231807481 -25.51304746817937 -0.370675169221149
430 1 -12.44951231807481 -25.51304746817937 2.370468438837851
431 1 -9.86505871786423 -25.51291519858098 1.496781777975164
432 1 -7.280611092313988 -25.51281018697666 3.366298866136388
433 1 -24.07949314105456 -27.75169075241456 -3.240492152323498
434 1 -21.49505642040224 -27.75158513895174 -4.127260007368877
435 1 -21.49505642040224 -27.75158513895174 -1.386116399309877
436 1 -18.9106123601482 -27.75146609848386 -2.270479569693713
437 1 -18.9106123601482 -27.75146609848386 0.4706640383652875
438 1 -16.32616352794957 -27.75133724168203 -0.4112597058744563
439 1 -16.32616352794957 -27.75133724168203 2.329883902184544
440 1 -13.74171328445759 -27.75120530676818 1.450337317119968
441 1 -11.15726511642404 -27.75108034672446 3.31412426785191
442 1 -27.95609772271505 -29.98989749097679 -3.259938112339069
443 1 -25.37167225457721 -29.98981081955989 -4.150467242022012
444 1 -25.37167225457721 -29.98981081955989 -1.409323633963013
445 1 -22.78723931347101 -29.9897116522388 -2.297865015104394
446 1 -22.78723931347101 -29.9897116522388 0.4432785929546064
447 1 -20.20280019922276 -29.98960109806837 -0.4431980284784463
448 1 -20.20280019922276 -29.98960109806837 2.297945579580554
449 1 -17.61835697593292 -29.98948208136903 1.413559566523463
450 1 -15.03391229891073 -29.98935982830242 3.272362532143121
451 1 26.31599296742155 5.819801365553555 -4.92959621223252
452 1 22.43953375110807 3.581667098169628 -4.954221086421743
453 1 25.02393271352341 3.581667219114411 -5.873397803539627
454 1 25.02393271352341 3.581667219114411 -3.132254195480627
455 1 18.56312515000277 1.343533544521527 -4.988284132934872
456 1 21.14751300199033 1.343533599644682 -5.904760004976005
457 1 21.14751300199033 1.343533599644682 -3.163616396917005
458 1 23.73189840020157 1.343533640568736 -4.07955976227539
459 1 23.73189840020157 1.343533640568736 -1.33841615421639
460 1 26.31628198304599 1.343533671713858 -2.253967345385341
461 1 26.31628198304599 1.343533671713858 0.4871762626736598
462 1 14.68679449531686 -0.8946007833657199 -2.295694649498114
463 1 17.27115555518909 -0.8946007296497617 -3.20641677479409
464 1 17.27115555518909 -0.8946007296497617 -0.4652731667350901
465 1 19.85551972845909 -0.8946006923086082 -1.376669354269793
466 1 19.85551972845909 -0.8946006923086082 1.364474253789207
467 1 22.43988607802298 -0.8946006653738534 0.4526087146305014
468 1 22.43988607802298 -0.8946006653738534 3.193752322689502
469 1 25.02425400783863 -0.8946006453419791 2.281546889083825
470 1 10.81055647563488 -3.132735612866448 -2.371187493406432
471 1 13.39487227029299 -3.132736156393309 -3.269729944854308
472 1 13.39487227029299 -3.132736156393309 -0.5285863367953089
473 1 15.97920130749808 -3.132736205663432 -1.431122080971557
474 1 15.97920130749808 -3.132736205663432 1.310021527087443
475 1 18.56353989184731 -3.132736109217843 0.4048755263014707
476 1 18.56353989184731 -3.132736109217843 3.146019134360471
477 1 21.14788546071305 -3.132735978764006 2.23907684384275
478 1 23.73223624491223 -3.132735850931535 4.071990776630535
479 1 6.934286027107333 -5.370813929117151 -2.490116245435821
480 1 9.518601852458618 -5.370847257811985 -3.364256512581928
481 1 9.518601852458618 -5.370847257811985 -0.6231129045229286
482 1 12.10291136436333 -5.37086048841975 -1.508916904795321
483 1 12.10291136436333 -5.37086048841975 1.232226703263679
484 1 14.68722618591653 -5.370866134947247 0.3390986742418317
485 1 14.68722618591653 -5.370866134947247 3.080242282300832
486 1 17.27154887701838 -5.370868666185723 2.182274385345172
487 1 19.85587915613575 -5.370869823023734 4.022107779669583
488 1 3.057571004894665 -7.608518065891771 -2.665167080766467
489 1 5.642081009400192 -7.608765892533863 -3.502103596158089
490 1 5.642081009400192 -7.608765892533863 -0.7609599880990894
491 1 8.226492932241051 -7.608887171985983 -1.619619459608244
492 1 8.226492932241051 -7.608887171985983 1.121524148450756
493 1 10.81085137173976 -7.608944957047336 0.2480369140926497
494 1 10.81085137173976 -7.608944957047336 2.98918052215165
495 1 13.39518714086265 -7.608973254762171 2.105672016812858
496 1 15.97951595568501 -7.60898769840245 3.956409912971857
497 1 -0.819418261702713 -9.845923300921456 -2.86221032581158
498 1 1.765161389302584 -9.846269258107183 -3.674968311616526
499 1 1.765161389302584 -9.846269258107183 -0.933824703557526
500 1 4.349728960817315 -9.846601849516574 -1.764809864838734
501 1 4.349728960817315 -9.846601849516574 0.9763337432202663
502 1 6.934232208884493 -9.846827365812004 0.1272782119598998
503 1 6.934232208884493 -9.846827365812004 2.8684218200189
504 1 9.518667582186646 -9.846960225230577 2.004594918577433
505 1 12.10305525893844 -9.847035144793107 3.870744892690741
506 1 -4.696216655326837 -12.08398127319246 -3.017464472177492
507 1 -2.111705694655027 -12.08394567990836 -3.838752578900612
508 1 -2.111705694655027 -12.08394567990836 -1.097608970841612
509 1 0.4728178462584172 -12.08413384399829 -1.921702448376214
510 1 0.4728178462584172 -12.08413384399829 0.8194411596827864
511 1 3.057362848393267 -12.08442808317044 -0.01401851733741011
512 1 3.057362848393267 -12.08442808317044 2.72712509072159
513 1 5.641896550173204 -12.08470220049992 1.881288213173665
514 1 8.226388719656033 -12.08490495148671 3.764335141774526
515 1 -8.572963706649745 -14.32239958781338 -3.118421770362238
516 1 -5.988451359071362 -14.32217514009375 -3.960162505778057
517 1 -5.988451359071362 -14.32217514009375 -1.219018897719057
518 1 -3.403957299791787 -14.32206651922382 -2.055561328757162
519 1 -3.403957299791787 -14.32206651922382 0.6855822793018378
520 1 -0.8194667381620939 -14.32212738040184 -0.150236669362515
521 1 -0.8194667381620939 -14.32212738040184 2.590906938696485
522 1 1.765040262391172 -14.32232676586384 1.751089186103597
523 1 4.349559916685767 -14.32257919790634 3.644988034830722
524 1 -12.44967173306297 -16.56078860198151 -3.182849829760644
525 1 -9.865172018034777 -16.56057039451159 -4.041843519827286
526 1 -9.865172018034777 -16.56057039451159 -1.300699911768286
527 1 -7.280675235842196 -16.56036412175069 -2.153434104049265
528 1 -7.280675235842196 -16.56036412175069 0.5877095040097345
529 1 -4.696192158306822 -16.56022660534488 -0.2603570608695565
530 1 -4.696192158306822 -16.56022660534488 2.480786547189444
531 1 -2.111718587344939 -16.56020725938954 1.634755057692332
532 1 0.4727605254328875 -16.56031376571672 3.528745694603622
533 1 -16.32633487788093 -18.79909619039798 -3.225798023330249
534 1 -13.74186016325759 -18.79892463286549 -4.096962448642673
535 1 -13.74186016325759 -18.79892463286549 -1.355818840583673
536 1 -11.1573754511771 -18.79873275465878 -2.22169971317659
537 1 -11.1573754511771 -18.79873275465878 0.5194438948824096
538 1 -8.572891526976761 -18.79854506271821 -0.3414653022909299
539 1 -8.572891526976761 -18.79854506271821 2.39967830576807
540 1 -5.98841728890521 -18.79839935418085 1.542796046300182
541 1 -3.403953338053893 -18.79833447838497 3.429470353829807
542 1 -20.20296433658619 -21.03734532998855 -3.255934768326246
543 1 -17.61851317534569 -21.03721486757734 -4.135527100832749
544 1 -17.61851317534569 -21.03721486757734 -1.394383492773749
545 1 -15.03404839234641 -21.03706031307841 -2.269846157358934
546 1 -15.03404839234641 -21.03706031307841 0.4712974507000658
547 1 -12.4495755156411 -21.03688922681696 -0.3999367781844445
548 1 -12.4495755156411 -21.03688922681696 2.341206829874556
549 1 -9.865102279500707 -21.03671845022008 1.474005402824661
550 1 -7.280635741347847 -21.0365739587726 3.351387615192347
551 1 -24.07957164017407 -23.27555785414643 -3.278054122676465
552 1 -21.49513887095774 -23.27545744752281 -4.163617248094259
553 1 -21.49513887095774 -23.27545744752281 -1.422473640035259
554 1 -18.91069311040662 -23.27533633641409 -2.30483945918728
555 1 -18.91069311040662 -23.27533633641409 0.4363041488717199
556 1 -16.32623647842231 -23.27519574383166 -0.4426692379523072
557 1 -16.32623647842231 -23.27519574383166 2.298474370106693
558 1 -13.74177316423387 -23.27504145808207 1.422961017714858
559 1 -11.15730888408362 -23.27488551709476 3.29192257362832
560 1 -27.95616473489365 -25.51374746878518 -3.294899882626864
561 1 -25.37174556843383 -25.51366838432133 -4.184827958605722
562 1 -25.37174556843383 -25.51366838432133 -1.443684350546722
563 1 -22.78731525562594 -25.51357280011887 -2.331110207306688
564 1 -22.78731525562594 -25.51357280011887 0.4100334007523121
565 1 -20.20287428534337 -25.51345991899302 -0.4746966887057862
566 1 -20.20287428534337 -25.51345991899302 2.266446919353214
567 1 -17.61842445918056 -25.51333099080562 1.384552307133875
568 1 -15.03396902511852 -25.51319054506945 3.246684581919161
569 1 -31.83274862172174 -27.75192231369164 -3.308120580500035
570 1 -29.248339422102 -27.75185850280319 -4.201338551785769
571 1 -29.248339422102 -27.75185850280319 -1.460194943726769
572 1 -26.6639209934775 -27.75178174250605 -2.351422213544937
573 1 -26.6639209934775 -27.75178174250605 0.3897213945140631
574 1 -24.07949314105456 -27.75169075241456 -0.4993485442654981
575 1 -24.07949314105456 -27.75169075241456 2.241795063793502
576 1 -21.49505642040224 -27.75158513895174 1.355027208748123
577 1 -18.9106123601482 -27.75146609848386 3.211807646423288
578 1 -33.12492456726036 -29.9900346528525 -4.214520378002575
579 1 -33.12492456726036 -29.9900346528525 -1.473376769943576
580 1 -30.54051515171983 -29.98997180616384 -2.367531565018041
581 1 -30.54051515171983 -29.98997180616384 0.3736120430409592
582 1 -27.95609772271505 -29.98989749097679 -0.5187945042810687
583 1 -27.95609772271505 -29.98989749097679 2.222349103777931
584 1 -25.37167225457721 -29.98981081955989 1.331819974094987
585 1 -22.78723931347101 -29.9897116522388 3.184422201012607
586 1 26.31578029172805 10.29607883539235 -4.867704975115235
587 1 22.43925795747222 8.057940762774015 -4.881385806329654
588 1 25.02367020764196 8.057938579295557 -5.806684958756096
589 1 25.02367020764196 8.057938579295557 -3.065541350697096
590 1 18.56275813582999 5.819803180081426 -4.900415136633426
591 1 21.14717530914719 5.819802090821755 -5.825827364649973
592 1 21.14717530914719 5.819802090821755 -3.084683756590973
593 1 23.7315866126689 5.819801582003943 -4.007946899124635
594 1 23.7315866126689 5.819801582003943 -1.266803291065635
595 1 26.31599296742155 5.819801365553555 -2.18845260417452
596 1 26.31599296742155 5.819801365553555 0.5526910038844806
597 1 14.68630125637492 3.581667001466777 -4.928550630982413
598 1 17.27071983342134 3.581666913906444 -5.852939324916225
599 1 17.27071983342134 3.581666913906444 -3.111795716857225
600 1 19.85512996027813 3.581666982995866 -4.033835842535001
601 1 19.85512996027813 3.581666982995866 -1.292692234476001
602 1 22.43953375110807 3.581667098169628 -2.213077478363743
603 1 22.43953375110807 3.581667098169628 0.5280661296952576
604 1 25.02393271352341 3.581667219114411 -0.3911105874226273
605 1 10.80993366927266 1.343533197734059 -4.973842866709459
606 1 13.39433759759068 1.343533358879716 -5.893878519097607
607 1 13.39433759759068 1.343533358879716 -3.152734911038607
608 1 15.97873386953247 1.343533468131924 -4.071059533966217
609 1 15.97873386953247 1.343533468131924 -1.329915925907217
610 1 18.56312515000277 1.343533544521527 -2.247140524876873
611 1 18.56312515000277 1.343533544521527 0.4940030831821276
612 1 21.14751300199033 1.343533599644682 -0.4224727888590056
613 1 23.73189840020157 1.343533640568736 1.40272745384161
614 1 6.933753305501641 -0.8946012075554132 -2.313922351390971
615 1 9.518089197819778 -0.8946009924064141 -3.219073009691067
616 1 9.518089197819778 -0.8946009924064141 -0.4779294016320674
617 1 12.10243810958064 -0.8946008641769158 -1.385990452947375
618 1 12.10243810958064 -0.8946008641769158 1.355153155111625
619 1 14.68679449531686 -0.8946007833657199 0.4454489585598864
620 1 14.68679449531686 -0.8946007833657199 3.186592566618887
621 1 17.27115555518909 -0.8946007296497617 2.27587044132291
622 1 19.85551972845909 -0.8946006923086082 4.105617861847207
623 1 3.057716073243208 -3.132686802376754 -2.483217633905422
624 1 5.641983448383989 -3.132724783675274 -3.339989478138988
625 1 5.641983448383989 -3.132724783675274 -0.5988458700799885
626 1 8.226258864480103 -3.13273338745726 -1.479176600039546
627 1 8.226258864480103 -3.13273338745726 1.261967008019454
628 1 10.81055647563488 -3.132735612866448 0.3699561146515685
629 1 10.81055647563488 -3.132735612866448 3.111099722710569
630 1 13.39487227029299 -3.132736156393309 2.212557271262691
631 1 15.97920130749808 -3.132736205663432 4.051165135145443
632 1 -0.8192764096104628 -5.369890373651261 -2.789491287261158
633 1 1.765430811700019 -5.37046564815576 -3.556088306823901
634 1 1.765430811700019 -5.37046564815576 -0.8149446987649015
635 1 4.349926338649135 -5.370722853687546 -1.635563982773767
636 1 4.349926338649135 -5.370722853687546 1.105579625285233
637 1 6.934286027107333 -5.370813929117151 0.2510273626221791
638 1 6.934286027107333 -5.370813929117151 2.992170970681179
639 1 9.518601852458618 -5.370847257811985 2.118030703535071
640 1 12.10291136436333 -5.37086048841975 3.97337031132168
641 1 -4.696272452405312 -7.607784261771164 -3.051458580145844
642 1 -2.111677213847317 -7.607699792066104 -3.819814228194906
643 1 -2.111677213847317 -7.607699792066104 -1.078670620135907
644 1 0.4729516741898512 -7.608095917991174 -1.857353400676696
645 1 0.4729516741898512 -7.608095917991174 0.8837902073823045
646 1 3.057571004894665 -7.608518065891771 0.07597652729153309
647 1 3.057571004894665 -7.608518065891771 2.817120135350534
648 1 5.642081009400192 -7.608765892533863 1.98018361995891
649 1 8.226492932241051 -7.608887171985983 3.862667756508756
650 1 -8.573103862039405 -9.846376011730705 -3.180559484111179
651 1 -5.98852042711802 -9.846013884825146 -3.998353939759613
652 1 -5.98852042711802 -9.846013884825146 -1.257210331700613
653 1 -3.403964846900329 -9.845799887408605 -2.060777076893466
654 1 -3.403964846900329 -9.845799887408605 0.6803665311655344
655 1 -0.819418261702713 -9.845923300921456 -0.1210667177535798
656 1 -0.819418261702713 -9.845923300921456 2.620076890305421
657 1 1.765161389302584 -9.846269258107183 1.807318904500474
658 1 4.349728960817315 -9.846601849516574 3.717477351278267
659 1 -12.44981736104425 -12.0847698698052 -3.245751031037318
660 1 -9.865293821645009 -12.0845147082003 -4.095321958025523
661 1 -9.865293821645009 -12.0845147082003 -1.354178349966523
662 1 -7.280747998530474 -12.08421624659219 -2.191147000006088
663 1 -7.280747998530474 -12.08421624659219 0.5499966080529123
664 1 -4.696216655326837 -12.08398127319246 -0.2763208641194921
665 1 -4.696216655326837 -12.08398127319246 2.464822743939508
666 1 -2.111705694655027 -12.08394567990836 1.643534637216387
667 1 0.4728178462584172 -12.08413384399829 3.560584767740786
668 1 -16.32645685955617 -14.32303832802087 -3.283438599953852
669 1 -13.74198583004449 -14.32287171959662 -4.150911421855256
670 1 -13.74198583004449 -14.32287171959662 -1.409767813796256
671 1 -11.15748300733407 -14.32265205591549 -2.268611775443538
672 1 -11.15748300733407 -14.32265205591549 0.4725318326154617
673 1 -8.572963706649745 -14.32239958781338 -0.3772781623042377
674 1 -8.572963706649745 -14.32239958781338 2.363865445754763
675 1 -5.988451359071362 -14.32217514009375 1.522124710338943
676 1 -3.403957299791787 -14.32206651922382 3.426725887359838
677 1 -20.2030605133667 -16.56124895684025 -3.307657419002985
678 1 -17.61862272038038 -16.56113445344118 -4.185883222044638
679 1 -17.61862272038038 -16.56113445344118 -1.444739613985639
680 1 -15.03415880106553 -16.56098130106134 -2.317068777598913
681 1 -15.03415880106553 -16.56098130106134 0.4240748304600871
682 1 -12.44967173306297 -16.56078860198151 -0.4417062217026444
683 1 -12.44967173306297 -16.56078860198151 2.299437386356356
684 1 -9.865172018034777 -16.56057039451159 1.440443696289714
685 1 -7.280675235842196 -16.56036412175069 3.328853112067735
686 1 -24.07964644567498 -18.79943092186607 -3.324437389361104
687 1 -21.49522902146006 -18.79934747907152 -4.209630929115304
688 1 -21.49522902146006 -18.79934747907152 -1.468487321056304
689 1 -18.91079209948293 -18.7992372898409 -2.349500115958528
690 1 -18.91079209948293 -18.7992372898409 0.3916434921004715
691 1 -16.32633487788093 -18.79909619039798 -0.4846544152722493
692 1 -16.32633487788093 -18.79909619039798 2.256489192786751
693 1 -13.74186016325759 -18.79892463286549 1.385324767474327
694 1 -11.1573754511771 -18.79873275465878 3.26058750294041
695 1 -27.95622303246266 -21.0375972481014 -3.3367158723562
696 1 -25.37181843513829 -21.03753338998808 -4.226717462184899
697 1 -25.37181843513829 -21.03753338998808 -1.485573854125899
698 1 -22.78739940475904 -21.03745067859046 -2.372493534785903
699 1 -22.78739940475904 -21.03745067859046 0.3686500732730975
700 1 -20.20296433658619 -21.03734532998855 -0.5147911602682455
701 1 -20.20296433658619 -21.03734532998855 2.226352447790755
702 1 -17.61851317534569 -21.03721486757734 1.346760115284251
703 1 -15.03404839234641 -21.03706031307841 3.212441058758066
704 1 -31.83279436972795 -23.27575431361601 -3.346076196386592
705 1 -29.24839816042373 -23.27570351219781 -4.23956430698242
706 1 -29.24839816042373 -23.27570351219781 -1.49842069892342
707 1 -26.66399110184468 -23.2756389972305 -2.389558146683382
708 1 -26.66399110184468 -23.2756389972305 0.3515854613756185
709 1 -24.07957164017407 -23.27555785414643 -0.5369105146184654
710 1 -24.07957164017407 -23.27555785414643 2.204233093440535
711 1 -21.49513887095774 -23.27545744752281 1.318669968022741
712 1 -18.91069311040662 -23.27533633641409 3.17744775692972
713 1 -33.12497207325259 -25.51386385243807 -4.249559154139996
714 1 -33.12497207325259 -25.51386385243807 -1.508415546080996
715 1 -30.54057322242013 -25.51381189142228 -2.402687986144472
716 1 -30.54057322242013 -25.51381189142228 0.3384556219145282
717 1 -27.95616473489365 -25.51374746878518 -0.5537562745688639
718 1 -27.95616473489365 -25.51374746878518 2.187387333490136
719 1 -25.37174556843383 -25.51366838432133 1.297459257511278
720 1 -22.78731525562594 -25.51357280011887 3.151177008810312
721 1 -31.83274862172174 -27.75192231369164 -0.5669769724420354
722 1 -31.83274862172174 -27.75192231369164 2.174166635616965
723 1 -29.248339422102 -27.75185850280319 1.28094866433123
724 1 -26.6639209934775 -27.75178174250605 3.130865002572063
725 1 -33.12492456726036 -29.9900346528525 1.267766838114424
726 1 -30.54051515171983 -29.98997180616384 3.114755651098959
727 1 26.31566268216505 14.77238048933489 -4.811356686685707
728 1 22.43910598037103 12.5342425819984 -4.815410952625465
729 1 25.02350821088898 12.53423047629275 -5.745287812243686
730 1 25.02350821088898 12.53423047629275 -3.004144204184686
731 1 18.56255212147187 10.29610368681127 -4.820979613038474
732 1 21.14696127584459 10.29609129614843 -5.753102651946458
733 1 21.14696127584459 10.29609129614843 -3.011959043887458
734 1 23.73137126683344 10.29608365151838 -3.941024259074199
735 1 23.73137126683344 10.29608365151838 -1.199880651015199
736 1 26.31578029172805 10.29607883539235 -2.126561367057234
737 1 26.31578029172805 10.29607883539235 0.6145822410017661
738 1 14.68600363835023 8.057963376709331 -4.82910338218049
739 1 17.2704232569304 8.057951214283491 -5.764098807296454
740 1 17.2704232569304 8.057951214283491 -3.022955199237455
741 1 19.85484207706278 8.057944538507147 -3.953729615286371
742 1 19.85484207706278 8.057944538507147 -1.212586007227372
743 1 22.43925795747222 8.057940762774015 -2.140242198271654
744 1 22.43925795747222 8.057940762774015 0.600901409787346
745 1 25.02367020764196 8.057938579295557 -0.3243977426390965
746 1 10.80946693183436 5.819821050215564 -4.842053279410131
747 1 13.39390326905687 5.81981031134855 -5.780688045354268
748 1 13.39390326905687 5.81981031134855 -3.039544437295269
749 1 15.97833422757924 5.819805461397349 -3.972060713870163
750 1 15.97833422757924 5.819805461397349 -1.230917105811163
751 1 18.56275813582999 5.819803180081426 -2.159271528575426
752 1 18.56275813582999 5.819803180081426 0.5818720794835739
753 1 21.14717530914719 5.819802090821755 -0.343540148532973
754 1 23.7315866126689 5.819801582003943 1.474340316992365
755 1 6.932962734188388 3.581676293880779 -4.865882296003624
756 1 9.517426182904337 3.581669546632649 -5.808475559130657
757 1 9.517426182904337 3.581669546632649 -3.067331951071657
758 1 12.10187129583215 3.581667558967754 -4.000677193627882
759 1 12.10187129583215 3.581667558967754 -1.259533585568882
760 1 14.68630125637492 3.581667001466777 -2.187407022923413
761 1 14.68630125637492 3.581667001466777 0.5537365851355869
762 1 17.27071983342134 3.581666913906444 -0.3706521087992249
763 1 19.85512996027813 3.581666982995866 1.448451373581999
764 1 3.05659346643397 1.343532752578487 -4.923462020385007
765 1 5.641078093082708 1.343532636642172 -5.863772056088944
766 1 5.641078093082708 1.343532636642172 -3.122628448029944
767 1 8.225517171645617 1.343532957166119 -4.050932369631459
768 1 8.225517171645617 1.343532957166119 -1.309788761572459
769 1 10.80993366927266 1.343533197734059 -2.23269925865146
770 1 10.80993366927266 1.343533197734059 0.5084443494075406
771 1 13.39433759759068 1.343533358879716 -0.4115913029806075
772 1 15.97873386953247 1.343533468131924 1.411227682150783
773 1 -0.8188982845750119 -0.8945785240694621 -2.450561067224708
774 1 1.765192916234628 -0.8946017359562389 -3.271808454710616
775 1 1.765192916234628 -0.8946017359562389 -0.5306648466516163
776 1 4.349443026823009 -0.8946015696837979 -1.414694101509177
777 1 4.349443026823009 -0.8946015696837979 1.326449506549823
778 1 6.933753305501641 -0.8946012075554132 0.4272212566670293
779 1 6.933753305501641 -0.8946012075554132 3.168364864726029
780 1 9.518089197819778 -0.8946009924064141 2.263214206425932
781 1 12.10243810958064 -0.8946008641769158 4.096296763169625
782 1 -4.696512779803347 -3.1319229095689 -3.168344784103442
783 1 -2.111558815367652 -3.131593691856958 -3.750032811615796
784 1 -2.111558815367652 -3.131593691856958 -1.008889203556796
785 1 0.473322401628256 -3.13247880730014 -1.681465733304017
786 1 0.473322401628256 -3.13247880730014 1.059677874754983
787 1 3.057716073243208 -3.132686802376754 0.2579259741525784
788 1 3.057716073243208 -3.132686802376754 2.999069582211578
789 1 5.641983448383989 -3.132724783675274 2.142297737978011
790 1 8.226258864480103 -3.13273338745726 4.003110616077454
791 1 -8.57336930639906 -5.370569564600246 -3.305202600920002
792 1 -5.988717750591701 -5.370087821430086 -4.089538278347995
793 1 -5.988717750591701 -5.370087821430086 -1.348394670288995
794 1 -3.403984955516802 -5.369540513279883 -2.074547816059392
795 1 -3.403984955516802 -5.369540513279883 0.6665957919996084
796 1 -0.8192764096104628 -5.369890373651261 -0.04834767920315775
797 1 -0.8192764096104628 -5.369890373651261 2.692795928855842
798 1 1.765430811700019 -5.37046564815576 1.926198909293098
799 1 4.349926338649135 -5.370722853687546 3.846723233343234
800 1 -12.44998128682731 -7.608811396041778 -3.34517557174
801 1 -9.86550455887088 -7.608608732684473 -4.189342803077309
802 1 -9.86550455887088 -7.608608732684473 -1.448199195018309
803 1 -7.280912445249315 -7.608234775272114 -2.265176580683835
804 1 -7.280912445249315 -7.608234775272114 0.4759670273751652
805 1 -4.696272452405312 -7.607784261771164 -0.3103149720878435
806 1 -4.696272452405312 -7.607784261771164 2.430828635971157
807 1 -2.111677213847317 -7.607699792066104 1.662472987922093
808 1 0.4729516741898512 -7.608095917991174 3.624933815440305
809 1 -16.32655652573786 -9.846986997856012 -3.363862338734705
810 1 -13.74213756609056 -9.846874541735275 -4.231341164053529
811 1 -13.74213756609056 -9.846874541735275 -1.490197555994529
812 1 -11.15765567832034 -9.846679816028868 -2.344006480386605
813 1 -11.15765567832034 -9.846679816028868 0.3971371276723952
814 1 -8.573103862039405 -9.846376011730705 -0.4394158760531788
815 1 -8.573103862039405 -9.846376011730705 2.301727732005821
816 1 -5.98852042711802 -9.846013884825146 1.483933276357386
817 1 -3.403964846900329 -9.845799887408605 3.421510139223535
818 1 -20.20312294528656 -12.08514254096238 -3.374650472076484
819 1 -17.61872676063945 -12.08506858136738 -4.254044726632171
820 1 -17.61872676063945 -12.08506858136738 -1.512901118573171
821 1 -15.03429514025323 -12.0849508911198 -2.384319001774441
822 1 -15.03429514025323 -12.0849508911198 0.3568246062845593
823 1 -12.44981736104425 -12.0847698698052 -0.5046074229793177
824 1 -12.44981736104425 -12.0847698698052 2.236536185079682
825 1 -9.865293821645009 -12.0845147082003 1.386965258091476
826 1 -7.280747998530474 -12.08421624659219 3.291140216110912
827 1 -24.07968656571969 -14.3232896612367 -3.381665560344604
828 1 -21.49530095868703 -14.32323584239878 -4.268193088765885
829 1 -21.49530095868703 -14.32323584239878 -1.527049480706885
830 1 -18.91089352827222 -14.32315582180704 -2.408405950868073
831 1 -18.91089352827222 -14.32315582180704 0.3327376571909267
832 1 -16.32645685955617 -14.32303832802087 -0.542294991895852
833 1 -16.32645685955617 -14.32303832802087 2.198848616163148
834 1 -13.74198583004449 -14.32287171959662 1.331375794261744
835 1 -11.15748300733407 -14.32265205591549 3.213675440673462
836 1 -27.95624915589507 -16.56143251031614 -3.386589651487423
837 1 -25.37186905071761 -16.56139072530226 -4.27783609022069
838 1 -25.37186905071761 -16.56139072530226 -1.536692482161691
839 1 -22.78747444548748 -16.56133176552094 -2.424331558447081
840 1 -22.78747444548748 -16.56133176552094 0.3168120496119183
841 1 -20.2030605133667 -16.56124895684025 -0.5665138109449857
842 1 -20.2030605133667 -16.56124895684025 2.174629797114015
843 1 -17.61862272038038 -16.56113445344118 1.296403994072361
844 1 -15.03415880106553 -16.56098130106134 3.165218438518087
845 1 -31.83281134250455 -18.79957291226775 -3.390235293756328
846 1 -29.24843433115842 -18.7995390002331 -4.284823600413828
847 1 -29.24843433115842 -18.7995390002331 -1.543679992354829
848 1 -26.66404710089676 -18.79949306341572 -2.435614850101301
849 1 -26.66404710089676 -18.79949306341572 0.3055287579576988
850 1 -24.07964644567498 -18.79943092186607 -0.5832937813031041
851 1 -24.07964644567498 -18.79943092186607 2.157849826755896
852 1 -21.49522902146006 -18.79934747907152 1.272656287001696
853 1 -18.91079209948293 -18.7992372898409 3.132787100158472
854 1 -33.12499820036436 -21.03768337285498 -4.290117080265278
855 1 -33.12499820036436 -21.03768337285498 -1.548973472206279
856 1 -30.54061548706382 -21.03764611279355 -2.444016904577215
857 1 -30.54061548706382 -21.03764611279355 0.2971267034817851
858 1 -27.95622303246266 -21.0375972481014 -0.5955722642982005
859 1 -27.95622303246266 -21.0375972481014 2.1455713437608
860 1 -25.37181843513829 -21.03753338998808 1.255569753932101
861 1 -22.78739940475904 -21.03745067859046 3.109793681331098
862 1 -31.83279436972795 -23.27575431361601 -0.6049325883285919
863 1 -31.83279436972795 -23.27575431361601 2.136211019730408
864 1 -29.24839816042373 -23.27570351219781 1.24272290913458
865 1 -26.66399110184468 -23.2756389972305 3.092729069433619
866 1 -33.12497207325259 -25.51386385243807 1.232728061977004
867 1 -30.54057322242013 -25.51381189142228 3.079599229972528
868 1 26.31562568661415 19.24871128942336 -4.761440658814545
869 1 22.43906292601088 17.0105827382439 -4.757898839130043
870 1 25.02344301999511 17.01055369642755 -5.690684401309207
871 1 25.02344301999511 17.01055369642755 -2.949540793250208
872 1 18.56250053448565 14.77245649797033 -4.753144673209527
873 1 21.14687987455588 14.77242122675392 -5.689309807698757
874 1 21.14687987455588 14.77242122675392 -2.948166199639758
875 1 23.73126845291801 14.77239712478996 -3.881086199120317
876 1 23.73126845291801 14.77239712478996 -1.139942591061317
877 1 26.31566268216505 14.77238048933489 -2.070213078627707
878 1 26.31566268216505 14.77238048933489 0.6709305294312931
879 1 14.68593907496233 12.53433423762121 -4.746429771284772
880 1 17.27031655329424 12.53428952344636 -5.687417498412297
881 1 17.27031655329424 12.53428952344636 -2.946273890353297
882 1 19.85470749206675 12.53426101292151 -3.882655621943761
883 1 19.85470749206675 12.53426101292151 -1.141512013884761
884 1 22.43910598037103 12.5342425819984 -2.074267344567465
885 1 22.43910598037103 12.5342425819984 0.6668762634915351
886 1 25.02350821088898 12.53423047629275 -0.2630005961266861
887 1 10.80938010044331 10.29621967228435 -4.73623369066042
888 1 13.39375299994029 10.29615915913262 -5.684648069763267
889 1 13.39375299994029 10.29615915913262 -2.943504461704268
890 1 15.97814726444125 10.2961242421598 -3.884874248746649
891 1 15.97814726444125 10.2961242421598 -1.143730640687649
892 1 18.56255212147187 10.29610368681127 -2.079836004980474
893 1 18.56255212147187 10.29610368681127 0.6613076030785265
894 1 21.14696127584459 10.29609129614843 -0.2708154358294583
895 1 23.73137126683344 10.29608365151838 1.541262957042801
896 1 6.932828716323609 8.058122856464092 -4.718933114060471
897 1 9.5171891914214 8.058031460439626 -5.68020985667831
898 1 9.5171891914214 8.058031460439626 -2.93906624861931
899 1 12.10158845146463 8.057986351194298 -3.888250817470635
900 1 12.10158845146463 8.057986351194298 -1.147107209411635
901 1 14.68600363835023 8.057963376709331 -2.08795977412249
902 1 14.68600363835023 8.057963376709331 0.6531838339365106
903 1 17.2704232569304 8.057951214283491 -0.2818115911794548
904 1 19.85484207706278 8.057944538507147 1.528557600830629
905 1 3.056307278425287 5.820081284062146 -4.683349092775008
906 1 5.640625510730118 5.819910332374223 -5.671951208086305
907 1 5.640625510730118 5.819910332374223 -2.930807600027305
908 1 8.225032902410399 5.81984632804109 -3.894013430833416
909 1 8.225032902410399 5.81984632804109 -1.152869822774417
910 1 10.80946693183436 5.819821050215564 -2.100909671352131
911 1 10.80946693183436 5.819821050215564 0.6402339367068695
912 1 13.39390326905687 5.81981031134855 -0.2984008292372688
913 1 15.97833422757924 5.819805461397349 1.510226502246838
914 1 -0.8200291400336628 3.582343615242866 -4.572887261374749
915 1 1.764067044967566 3.581813959394924 -5.651264759603372
916 1 1.764067044967566 3.581813959394924 -2.910121151544371
917 1 4.348487684857711 3.581701507382975 -3.906073048085269
918 1 4.348487684857711 3.581701507382975 -1.16492944002627
919 1 6.932962734188388 3.581676293880779 -2.124738687945625
920 1 6.932962734188388 3.581676293880779 0.6164049201133754
921 1 9.517426182904337 3.581669546632649 -0.3261883430136572
922 1 12.10187129583215 3.581667558967754 1.481610022489118
923 1 -4.695390833166007 1.343698545716192 -3.929108959437905
924 1 -2.112276301032254 1.344107065292959 -5.512212862827581
925 1 -2.112276301032254 1.344107065292959 -2.771069254768581
926 1 0.4720113278860532 1.343543751608153 -3.947015254730085
927 1 0.4720113278860532 1.343543751608153 -1.205871646671085
928 1 3.05659346643397 1.343532752578487 -2.182318412327007
929 1 3.05659346643397 1.343532752578487 0.5588251957319932
930 1 5.641078093082708 1.343532636642172 -0.3814848399719442
931 1 8.225517171645617 1.343532957166119 1.431354846485541
932 1 -8.573027290793306 -0.8946018519981723 -3.568931989770852
933 1 -5.988876433889747 -0.8945960474367711 -4.421079277042624
934 1 -5.988876433889747 -0.8945960474367711 -1.679935668983624
935 1 -3.404223705789558 -0.8936103581830125 -2.209411593242613
936 1 -3.404223705789558 -0.8936103581830125 0.5317320148163872
937 1 -0.8188982845750119 -0.8945785240694621 0.290582540833292
938 1 -0.8188982845750119 -0.8945785240694621 3.031726148892292
939 1 1.765192916234628 -0.8946017359562389 2.210478761406383
940 1 4.349443026823009 -0.8946015696837979 4.067593114607823
941 1 -12.4498332447151 -3.132728674467548 -3.500715272849772
942 1 -9.865568274155905 -3.132704658052172 -4.36641771703473
943 1 -9.865568274155905 -3.132704658052172 -1.625274108975731
944 1 -7.281243436802042 -3.132580809793748 -2.448723196749363
945 1 -7.281243436802042 -3.132580809793748 0.2924204113096371
946 1 -4.696512779803347 -3.1319229095689 -0.4272011760454426
947 1 -4.696512779803347 -3.1319229095689 2.313942432013558
948 1 -2.111558815367652 -3.131593691856958 1.732254404501203
949 1 0.473322401628256 -3.13247880730014 3.800821482812983
950 1 -16.32646371223511 -5.370852474645539 -3.474070895545748
951 1 -13.74215201815973 -5.370827301554655 -4.352275271317176
952 1 -13.74215201815973 -5.370827301554655 -1.611131663258175
953 1 -11.15781188122134 -5.370760059349552 -2.47260655401849
954 1 -11.15781188122134 -5.370760059349552 0.2685370540405099
955 1 -8.57336930639906 -5.370569564600246 -0.5640589928610017
956 1 -8.57336930639906 -5.370569564600246 2.177084615197999
957 1 -5.988717750591701 -5.370087821430086 1.392748937769005
958 1 -3.403984955516802 -5.369540513279883 3.407739400057609
959 1 -20.20305508052794 -7.608978577087083 -3.459980106031032
960 1 -17.6187225114865 -7.608955469204528 -4.345795935920784
961 1 -17.6187225114865 -7.608955469204528 -1.604652327861785
962 1 -15.03437316493493 -7.60890882282852 -2.481514136195629
963 1 -15.03437316493493 -7.60890882282852 0.2596294718633708
964 1 -12.44998128682731 -7.608811396041778 -0.6040319636820004
965 1 -12.44998128682731 -7.608811396041778 2.137111644377
966 1 -9.86550455887088 -7.608608732684473 1.292944413039691
967 1 -7.280912445249315 -7.608234775272114 3.217110635433166
968 1 -24.07963288010066 -9.847106771768573 -3.451278744697861
969 1 -21.49528909224443 -9.84708603963904 -4.342079374208833
970 1 -21.49528909224443 -9.84708603963904 -1.600935766149833
971 1 -18.91093424440204 -9.847050220875962 -2.486163435789279
972 1 -18.91093424440204 -9.847050220875962 0.2549801722697215
973 1 -16.32655652573786 -9.846986997856012 -0.6227187306767051
974 1 -16.32655652573786 -9.846986997856012 2.118424877382295
975 1 -13.74213756609056 -9.846874541735275 1.250946052063471
976 1 -11.15765567832034 -9.846679816028868 3.138280735730395
977 1 -27.95620464565943 -12.08523645353212 -3.445375028887229
978 1 -25.37185403554874 -12.08521785199919 -4.339668735840452
979 1 -25.37185403554874 -12.08521785199919 -1.598525127781452
980 1 -22.78749559232363 -12.08518874723534 -2.489017399005967
981 1 -22.78749559232363 -12.08518874723534 0.2521262090530337
982 1 -20.20312294528656 -12.08514254096238 -0.6335068640184842
983 1 -20.20312294528656 -12.08514254096238 2.107636744040516
984 1 -17.61872676063945 -12.08506858136738 1.228242489484829
985 1 -15.03429514025323 -12.0849508911198 3.09796821434256
986 1 -31.83277327566827 -14.32336717443066 -3.441107718224548
987 1 -29.24841814832657 -14.32335038643282 -4.3379782872248
988 1 -29.24841814832657 -14.32335038643282 -1.5968346791658
989 1 -26.66405718547044 -14.32332586287803 -2.490947006319981
990 1 -26.66405718547044 -14.32332586287803 0.2501966017390194
991 1 -24.07968656571969 -14.3232896612367 -0.6405219522866039
992 1 -24.07968656571969 -14.3232896612367 2.100621655772396
993 1 -21.49530095868703 -14.32323584239878 1.214094127351115
994 1 -18.91089352827222 -14.32315582180704 3.073881265248927
995 1 -33.12498178492174 -16.5614833769216 -4.336727030374528
996 1 -33.12498178492174 -16.5614833769216 -1.595583422315528
997 1 -30.54061896270622 -16.56146218260734 -2.492338399985526
998 1 -30.54061896270622 -16.56146218260734 0.2488052080734745
999 1 -27.95624915589507 -16.56143251031614 -0.6454460434294225
1000 1 -27.95624915589507 -16.56143251031614 2.095697564629578
1001 1 -25.37186905071761 -16.56139072530226 1.204451125896309
1002 1 -22.78747444548748 -16.56133176552094 3.057955657669919
1003 1 -31.83281134250455 -18.79957291226775 -0.6490916856983281
1004 1 -31.83281134250455 -18.79957291226775 2.092051922360672
1005 1 -29.24843433115842 -18.7995390002331 1.197463615703171
1006 1 -26.66404710089676 -18.79949306341572 3.046672366015699
1007 1 -33.12499820036436 -21.03768337285498 1.192170135851721
1008 1 -30.54061548706382 -21.03764611279355 3.038270311539785
1009 1 26.31564185799511 23.72506560334758 -4.717999125849208
1010 1 22.4390877933033 21.48695302326603 -4.708935059837676
1011 1 25.02344606845482 21.48690552030546 -5.643225688298676
1012 1 25.02344606845482 21.48690552030546 -2.902082080239676
1013 1 18.56253862351888 19.24884913911762 -4.697104161365944
1014 1 21.14688916889599 19.24878905476455 -5.635104393592743
1015 1 21.14688916889599 19.24878905476455 -2.893960785533743
1016 1 23.73125253397289 19.24874441599142 -3.828976338701323
1017 1 23.73125253397289 19.24874441599142 -1.087832730642323
1018 1 26.31562568661415 19.24871128942336 -2.020297050756545
1019 1 26.31562568661415 19.24871128942336 0.7208465573024549
1020 1 14.6859980919758 17.01075978991886 -4.681040835370225
1021 1 17.27033621998686 17.01068030270804 -5.624262440856328
1022 1 17.27033621998686 17.01068030270804 -2.883118832797329
1023 1 19.8546926782838 17.01062336184828 -3.822232202738434
1024 1 19.8546926782838 17.01062336184828 -1.081088594679434
1025 1 22.43906292601088 17.0105827382439 -2.016755231072043
1026 1 22.43906292601088 17.0105827382439 0.7243883769869575
1027 1 25.02344301999511 17.01055369642755 -0.2083971851922075
1028 1 10.80947377581146 14.77269674220138 -4.658060055555294
1029 1 13.3937908281683 14.77258507070873 -5.609081831322719
1030 1 13.3937908281683 14.77258507070873 -2.867938223263719
1031 1 15.97813540082113 14.77250846648142 -3.812990943211876
1032 1 15.97813540082113 14.77250846648142 -1.071847335152876
1033 1 18.56250053448565 14.77245649797033 -2.012001065151527
1034 1 18.56250053448565 14.77245649797033 0.7291425429074729
1035 1 21.14687987455588 14.77242122675392 -0.2070225915817581
1036 1 23.73126845291801 14.77239712478996 1.601201016996683
1037 1 6.932981944985894 12.53468599427105 -4.622738713037858
1038 1 9.51726118359268 12.53451613619743 -5.586381436215779
1039 1 9.51726118359268 12.53451613619743 -2.84523782815678
1040 1 12.10158363752116 12.53440492297004 -3.799567030474655
1041 1 12.10158363752116 12.53440492297004 -1.058423422415655
1042 1 14.68593907496233 12.53433423762121 -2.005286163226772
1043 1 14.68593907496233 12.53433423762121 0.7358574448322286
1044 1 17.27031655329424 12.53428952344636 -0.2051302822952974
1045 1 19.85470749206675 12.53426101292151 1.599631594173239
1046 1 3.056557313406686 10.29678800788442 -4.562699138962031
1047 1 5.640767942461361 10.29650586833984 -5.549034115560056
1048 1 5.640767942461361 10.29650586833984 -2.807890507501056
1049 1 8.225045129147727 10.29632536273281 -3.778348430482251
1050 1 8.225045129147727 10.29632536273281 -1.037204822423251
1051 1 10.80938010044331 10.29621967228435 -1.995090082602419
1052 1 10.80938010044331 10.29621967228435 0.7460535254565808
1053 1 13.39375299994029 10.29615915913262 -0.2023608536462678
1054 1 15.97814726444125 10.2961242421598 1.597412967370351
1055 1 -0.8197525195554189 8.059090663317022 -4.446162869456813
1056 1 1.764366253946295 8.058647483918671 -5.477931001278314
1057 1 1.764366253946295 8.058647483918671 -2.736787393219314
1058 1 4.348544209484739 8.058307805514881 -3.740065498602694
1059 1 4.348544209484739 8.058307805514881 -0.9989218905436942
1060 1 6.932828716323609 8.058122856464092 -1.977789506002471
1061 1 6.932828716323609 8.058122856464092 0.7633541020565291
1062 1 9.5171891914214 8.058031460439626 -0.1979226405613104
1063 1 12.10158845146463 8.057986351194298 1.594036398646365
1064 1 -4.695930386491176 5.820938313927813 -4.205521095414358
1065 1 -2.11185575080896 5.82107785381971 -5.311080312399364
1066 1 -2.11185575080896 5.82107785381971 -2.569936704340364
1067 1 0.4721724630731354 5.820502260335308 -3.653178339010043
1068 1 0.4721724630731354 5.820502260335308 -0.9120347309510427
1069 1 3.056307278425287 5.820081284062146 -1.942205484717008
1070 1 3.056307278425287 5.820081284062146 0.7989381233419923
1071 1 5.640625510730118 5.819910332374223 -0.1896639919693053
1072 1 8.225032902410399 5.81984632804109 1.588273785283584
1073 1 -8.571945811355143 3.581761395096549 -3.890095106888203
1074 1 -5.987714533265818 3.582107418842417 -4.937207643855468
1075 1 -5.987714533265818 3.582107418842417 -2.196064035796469
1076 1 -3.403872106364744 3.582978884853097 -3.368244999604305
1077 1 -3.403872106364744 3.582978884853097 -0.6271013915453049
1078 1 -0.8200291400336628 3.582343615242866 -1.831743653316749
1079 1 -0.8200291400336628 3.582343615242866 0.9093999547422511
1080 1 1.764067044967566 3.581813959394924 -0.1689775434863716
1081 1 4.348487684857711 3.581701507382975 1.576214168031731
1082 1 -12.44898152820628 1.343532751069513 -3.702321985733093
1083 1 -9.864514101639255 1.34353257552378 -4.637931609141487
1084 1 -9.864514101639255 1.34353257552378 -1.896788001082487
1085 1 -7.279967531467719 1.343536620969512 -2.857411260565451
1086 1 -7.279967531467719 1.343536620969512 -0.116267652506451
1087 1 -4.695390833166007 1.343698545716192 -1.187965351379906
1088 1 -4.695390833166007 1.343698545716192 1.553178256679095
1089 1 -2.112276301032254 1.344107065292959 -0.02992564671058151
1090 1 0.4720113278860532 1.343543751608153 1.535271961386915
1091 1 -16.32596176094372 -0.8946009575395918 -3.61196837754469
1092 1 -13.74162121645445 -0.8946011437294441 -4.518191238205456
1093 1 -13.74162121645445 -0.8946011437294441 -1.777047630146457
1094 1 -11.1573013513584 -0.8946014617289335 -2.678557198559008
1095 1 -11.1573013513584 -0.8946014617289335 0.06258640949999145
1096 1 -8.573027290793306 -0.8946018519981723 -0.8277883817118517
1097 1 -8.573027290793306 -0.8946018519981723 1.913355226347148
1098 1 -5.988876433889747 -0.8945960474367711 1.061207939074376
1099 1 -3.404223705789558 -0.8936103581830125 3.272875622874387
1100 1 -20.20273879937687 -3.13273622389878 -3.563025016849563
1101 1 -17.61841867221101 -3.132735895081649 -4.462950321052399
1102 1 -17.61841867221101 -3.132735895081649 -1.7218067129934
1103 1 -15.03411518687283 -3.132734403200705 -2.616128301421405
1104 1 -15.03411518687283 -3.132734403200705 0.1250153066375947
1105 1 -12.4498332447151 -3.132728674467548 -0.7595716647917716
1106 1 -12.4498332447151 -3.132728674467548 1.981571943267229
1107 1 -9.865568274155905 -3.132704658052172 1.115869499082269
1108 1 -7.281243436802042 -3.132580809793748 3.033564019367637
1109 1 -24.07941618051135 -5.370869139387766 -3.533044980611606
1110 1 -21.49509119278132 -5.370867134531256 -4.432131739462963
1111 1 -21.49509119278132 -5.370867134531256 -1.690988131403963
1112 1 -18.91077415166846 -5.37086269842235 -2.585754249114967
1113 1 -18.91077415166846 -5.37086269842235 0.1553893589440326
1114 1 -16.32646371223511 -5.370852474645539 -0.7329272874877486
1115 1 -16.32646371223511 -5.370852474645539 2.008216320571252
1116 1 -13.74215201815973 -5.370827301554655 1.130011944799824
1117 1 -11.15781188122134 -5.370760059349552 3.00968066209851
1118 1 -27.95604603717003 -7.609000481150007 -3.512970437130045
1119 1 -25.37171303639578 -7.608996927364676 -4.412653104913915
1120 1 -25.37171303639578 -7.608996927364676 -1.671509496854915
1121 1 -22.78738342589459 -7.608990515556697 -2.567956103429572
1122 1 -22.78738342589459 -7.608990515556697 0.1731875046294285
1123 1 -20.20305508052794 -7.608978577087083 -0.7188364979730317
1124 1 -20.20305508052794 -7.608978577087083 2.022307110085968
1125 1 -17.6187225114865 -7.608955469204528 1.136491280196215
1126 1 -15.03437316493493 -7.60890882282852 3.000773079921371
1127 1 -31.83265126781998 -9.847131224985448 -3.498643536662924
1128 1 -29.2483112268654 -9.847126567462215 -4.399276687686081
1129 1 -29.2483112268654 -9.847126567462215 -1.658133079627081
1130 1 -26.66397237889104 -9.847119079060407 -2.556298519889053
1131 1 -26.66397237889104 -9.847119079060407 0.1848450881699473
1132 1 -24.07963288010066 -9.847106771768573 -0.7101351366398605
1133 1 -24.07963288010066 -9.847106771768573 2.03100847141914
1134 1 -21.49528909224443 -9.84708603963904 1.140207841908167
1135 1 -18.91093424440204 -9.847050220875962 2.996123780327721
1136 1 -33.12489698456461 -12.08525653465736 -4.389539794907217
1137 1 -33.12489698456461 -12.08525653465736 -1.648396186848217
1138 1 -30.54055147357407 -12.08524854349064 -2.548081595677347
1139 1 -30.54055147357407 -12.08524854349064 0.193062012381653
1140 1 -27.95620464565943 -12.08523645353212 -0.7042314208292295
1141 1 -27.95620464565943 -12.08523645353212 2.036912187229771
1142 1 -25.37185403554874 -12.08521785199919 1.142618480276548
1143 1 -22.78749559232363 -12.08518874723534 2.993269817111034
1144 1 -31.83277327566827 -14.32336717443066 -0.6999641101665484
1145 1 -31.83277327566827 -14.32336717443066 2.041179497892452
1146 1 -29.24841814832657 -14.32335038643282 1.1443089288922
1147 1 -26.66405718547044 -14.32332586287803 2.991340209797019
1148 1 -33.12498178492174 -16.5614833769216 1.145560185742472
1149 1 -30.54061896270622 -16.56146218260734 2.989948816131474
1150 1 26.31568622439701 28.20143307597523 -4.680553038459919
1151 1 22.43914424371848 25.96333763872958 -4.667724560116879
1152 1 25.02348688795629 25.96327502997562 -5.60250892277555
1153 1 25.02348688795629 25.96327502997562 -2.86136531471655
1154 1 18.56261096418459 23.72525616450609 -4.651440629968968
1155 1 21.14694313858774 23.72517762035408 -5.589795268161452
1156 1 21.14694313858774 23.72517762035408 -2.848651660102452
1157 1 23.73128727559662 23.72511503119637 -3.784459638080454
1158 1 23.73128727559662 23.72511503119637 -1.043316030021454
1159 1 26.31564185799511 23.72506560334758 -1.976855517791208
1160 1 26.31564185799511 23.72506560334758 0.7642880902677918
1161 1 14.68609106836638 21.48719623447629 -4.630158871426219
1162 1 17.27040838326684 21.48709471943766 -5.573345671372209
1163 1 17.27040838326684 21.48709471943766 -2.832202063313209
1164 1 19.85474116226661 21.48701486685836 -3.772049065964944
1165 1 19.85474116226661 21.48701486685836 -1.030905457905944
1166 1 22.4390877933033 21.48695302326603 -1.967791451779676
1167 1 22.4390877933033 21.48695302326603 0.7733521562793246
1168 1 25.02344606845482 21.48690552030546 -0.160938472181676
1169 1 10.80959202082263 19.24917060553357 -4.601330571393148
1170 1 13.39388821692935 19.24903523406856 -5.551306461685605
1171 1 13.39388821692935 19.24903523406856 -2.810162853626605
1172 1 15.97820408215075 19.24892946977712 -3.75563126722477
1173 1 15.97820408215075 19.24892946977712 -1.014487659165769
1174 1 18.56253862351888 19.24884913911762 -1.955960553307944
1175 1 18.56253862351888 19.24884913911762 0.7851830547510557
1176 1 21.14688916889599 19.24878905476455 -0.152817177475743
1177 1 23.73125253397289 19.24874441599142 1.653310877415677
1178 1 6.93312486882472 17.01119989963476 -4.560533999432552
1179 1 9.517392282283099 17.01101529617672 -5.520445477524837
1180 1 9.517392282283099 17.01101529617672 -2.779301869465837
1181 1 12.10168263799336 17.01086919357469 -3.732972352287986
1182 1 12.10168263799336 17.01086919357469 -0.9918287442289858
1183 1 14.6859980919758 17.01075978991886 -1.939897227312225
1184 1 14.6859980919758 17.01075978991886 0.8012463807467751
1185 1 17.27033621998686 17.01068030270804 -0.1419752247393284
1186 1 19.8546926782838 17.01062336184828 1.660055013378567
1187 1 3.056701427620606 14.77330846243965 -4.499801904848847
1188 1 5.640936195650712 14.77306348378248 -5.474752837164957
1189 1 5.640936195650712 14.77306348378248 -2.733609229105958
1190 1 8.225189366864782 14.77285453951531 -3.699913424874009
1191 1 8.225189366864782 14.77285453951531 -0.9587698168150091
1192 1 10.80947377581146 14.77269674220138 -1.916916447497294
1193 1 10.80947377581146 14.77269674220138 0.824227160561706
1194 1 13.3937908281683 14.77258507070873 -0.1267946152057191
1195 1 15.97813540082113 14.77250846648142 1.669296272905125
1196 1 -0.8196808021570399 12.53546536404458 -4.405108046158433
1197 1 1.764537688634014 12.53521562057382 -5.402443576976395
1198 1 1.764537688634014 12.53521562057382 -2.661299968917395
1199 1 4.348747101720652 12.53492634359072 -3.648006776770846
1200 1 4.348747101720652 12.53492634359072 -0.9068631687118464
1201 1 6.932981944985894 12.53468599427105 -1.881595104979858
1202 1 6.932981944985894 12.53468599427105 0.8595485030791419
1203 1 9.51726118359268 12.53451613619743 -0.1040942200987798
1204 1 12.10158363752116 12.53440492297004 1.682720185642345
1205 1 -4.69602238123124 10.29734267277015 -4.258125642933837
1206 1 -2.111809785925232 10.29739185794237 -5.281292744145277
1207 1 -2.111809785925232 10.29739185794237 -2.540149136086277
1208 1 0.4723839267498953 10.29713962548534 -3.55871423535794
1209 1 0.4723839267498953 10.29713962548534 -0.8175706272989393
1210 1 3.056557313406686 10.29678800788442 -1.821555530904031
1211 1 3.056557313406686 10.29678800788442 0.9195880771549687
1212 1 5.640767942461361 10.29650586833984 -0.06674689944305578
1213 1 8.225045129147727 10.29632536273281 1.703938785634749
1214 1 -8.572179170783709 8.058530015982639 -4.064093630451572
1215 1 -5.988054840995801 8.058965634241522 -5.087618688239588
1216 1 -5.988054840995801 8.058965634241522 -2.346475080180588
1217 1 -3.403910836863704 8.059273050232228 -3.394374310814405
1218 1 -3.403910836863704 8.059273050232228 -0.6532307027554055
1219 1 -0.8197525195554189 8.059090663317022 -1.705019261398814
1220 1 -0.8197525195554189 8.059090663317022 1.036124346660186
1221 1 1.764366253946295 8.058647483918671 0.004356214838685757
1222 1 4.348544209484739 8.058307805514881 1.742221717514306
1223 1 -12.44851088722758 5.819884893409645 -3.882646331498733
1224 1 -9.864156890852676 5.820012840762691 -4.862394194609113
1225 1 -9.864156890852676 5.820012840762691 -2.121250586550113
1226 1 -7.279961882041855 5.820344660290091 -3.137351213217783
1227 1 -7.279961882041855 5.820344660290091 -0.3962076051587827
1228 1 -4.695930386491176 5.820938313927813 -1.464377487356358
1229 1 -4.695930386491176 5.820938313927813 1.276766120702642
1230 1 -2.11185575080896 5.82107785381971 0.1712069037176354
1231 1 0.4721724630731354 5.820502260335308 1.829108877106957
1232 1 -16.32532984373125 3.581668735243452 -3.756184533407982
1233 1 -13.74087191516086 3.581673432326115 -4.695513573727788
1234 1 -13.74087191516086 3.581673432326115 -1.954369965668789
1235 1 -11.15639793929176 3.581690295832026 -2.907882564022898
1236 1 -11.15639793929176 3.581690295832026 -0.1667389559638985
1237 1 -8.571945811355143 3.581761395096549 -1.148951498829203
1238 1 -8.571945811355143 3.581761395096549 1.592192109229797
1239 1 -5.987714533265818 3.582107418842417 0.5450795722615314
1240 1 -3.403872106364744 3.582978884853097 2.114042216512695
1241 1 -20.20222571324326 1.343533405300122 -3.675768060856497
1242 1 -17.61782443229995 1.343533263711961 -4.595227628055776
1243 1 -17.61782443229995 1.343533263711961 -1.854084019996776
1244 1 -15.0334123788043 1.343533052009896 -2.775991073550039
1245 1 -15.0334123788043 1.343533052009896 -0.03484746549103945
1246 1 -12.44898152820628 1.343532751069513 -0.9611783776740925
1247 1 -12.44898152820628 1.343532751069513 1.779965230384908
1248 1 -9.864514101639255 1.34353257552378 0.8443556069755125
1249 1 -7.279967531467719 1.343536620969512 2.624875955551549
1250 1 -24.0790332942853 -0.8946007233448504 -3.623437298462726
1251 1 -21.4946712103683 -0.8946007722577426 -4.53439646761437
1252 1 -21.4946712103683 -0.8946007722577426 -1.79325285955537
1253 1 -18.91031325327866 -0.8946008446832735 -2.703317363111961
1254 1 -18.91031325327866 -0.8946008446832735 0.03782624494703896
1255 1 -16.32596176094372 -0.8946009575395918 -0.8708247694856903
1256 1 -16.32596176094372 -0.8946009575395918 1.87031883857331
1257 1 -13.74162121645445 -0.8946011437294441 0.9640959779115432
1258 1 -11.1573013513584 -0.8946014617289335 2.803730017557992
1259 1 -27.95575903774619 -3.132735957288795 -3.587617413835889
1260 1 -25.37141179492079 -3.132736091121493 -4.494990749143436
1261 1 -25.37141179492079 -3.132736091121493 -1.753847141084436
1262 1 -22.7870709498525 -3.132736206768851 -2.659599103861282
1263 1 -22.7870709498525 -3.132736206768851 0.08154450419771803
1264 1 -20.20273879937687 -3.13273622389878 -0.821881408791563
1265 1 -20.20273879937687 -3.13273622389878 1.919262199267437
1266 1 -17.61841867221101 -3.132735895081649 1.0193368950646
1267 1 -15.03411518687283 -3.132734403200705 2.866158914695595
1268 1 -31.83243075180114 -5.370870597881155 -3.561877747883543
1269 1 -29.24808703399296 -5.37087045083458 -4.467794382976561
1270 1 -29.24808703399296 -5.37087045083458 -1.726650774917562
1271 1 -26.66374848900073 -5.370870052662164 -2.630939869201514
1272 1 -26.66374848900073 -5.370870052662164 0.110203738857486
1273 1 -24.07941618051135 -5.370869139387766 -0.7919013725536056
1274 1 -24.07941618051135 -5.370869139387766 1.949242235505395
1275 1 -21.49509119278132 -5.370867134531256 1.050155476654036
1276 1 -18.91077415166846 -5.37086269842235 2.896532967002033
1277 1 -33.12472396518832 -7.609003651311077 -4.448034849296233
1278 1 -33.12472396518832 -7.609003651311077 -1.706891241237234
1279 1 -30.54038303139852 -7.609002495635949 -2.61086098474629
1280 1 -30.54038303139852 -7.609002495635949 0.1302826233127102
1281 1 -27.95604603717003 -7.609000481150007 -0.7718268290720447
1282 1 -27.95604603717003 -7.609000481150007 1.969316778986955
1283 1 -25.37171303639578 -7.608996927364676 1.069634111203085
1284 1 -22.78738342589459 -7.608990515556697 2.914331112687429
1285 1 -31.83265126781998 -9.847131224985448 -0.7574999286049242
1286 1 -31.83265126781998 -9.847131224985448 1.983643679454076
1287 1 -29.2483112268654 -9.847126567462215 1.083010528430919
1288 1 -26.66397237889104 -9.847119079060407 2.925988696227948
1289 1 -33.12489698456461 -12.08525653465736 1.092747421209783
1290 1 -30.54055147357407 -12.08524854349064 2.934205620439653
1291 1 18.56268782252949 28.20165827656361 -4.614276520778121
1292 1 21.14701148857063 28.2015698314885 -5.552121288317317
1293 1 21.14701148857063 28.2015698314885 -2.810977680258318
1294 1 23.73134436987052 28.20149519392757 -3.746730381800893
1295 1 23.73134436987052 28.20149519392757 -1.005586773741893
1296 1 26.31568622439701 28.20143307597523 -1.93940943040192
1297 1 26.31568622439701 28.20143307597523 0.8017341776570805
1298 1 14.68617955471257 25.96361658991347 -4.590440628846589
1299 1 17.27049050071333 25.96350705316745 -5.532462773247441
1300 1 17.27049050071333 25.96350705316745 -2.791319165188441
1301 1 19.85481194358127 25.96341437229898 -3.730731735108582
1302 1 19.85481194358127 25.96341437229898 -0.9895881270495818
1303 1 22.43914424371848 25.96333763872958 -1.926580952058879
1304 1 22.43914424371848 25.96333763872958 0.8145626560001209
1305 1 25.02348688795629 25.96327502997562 -0.1202217066585505
1306 1 10.80968955287777 23.72560684899303 -4.559588647800707
1307 1 13.39398516126728 23.72547040295593 -5.507136544084199
1308 1 13.39398516126728 23.72547040295593 -2.765992936025199
1309 1 15.97829169236225 23.72535324204502 -3.710259093194325
1310 1 15.97829169236225 23.72535324204502 -0.9691154851353253
1311 1 18.56261096418459 23.72525616450609 -1.910297021910967
1312 1 18.56261096418459 23.72525616450609 0.8308465861480328
1313 1 21.14694313858774 23.72517762035408 -0.107508052044452
1314 1 23.73128727559662 23.72511503119637 1.697827578036546
1315 1 6.93322222089899 21.48763843765174 -4.518587480554165
1316 1 9.517501478015403 21.48747146267682 -5.473553184775697
1317 1 9.517501478015403 21.48747146267682 -2.732409576716697
1318 1 12.10178945198115 21.48732197278804 -3.683273973460405
1319 1 12.10178945198115 21.48732197278804 -0.9421303654014045
1320 1 14.68609106836638 21.48719623447629 -1.889015263367219
1321 1 14.68609106836638 21.48719623447629 0.8521283446917816
1322 1 17.27040838326684 21.48709471943766 -0.09105845525520984
1323 1 19.85474116226661 21.48701486685836 1.710238150152056
1324 1 3.056778321411946 19.24971013082696 -4.46267914044016
1325 1 5.641045380386759 19.24952275850575 -5.427569384677337
1326 1 5.641045380386759 19.24952275850575 -2.686425776618337
1327 1 8.225313267764909 19.24933584348958 -3.646431684922384
1328 1 8.225313267764909 19.24933584348958 -0.9052880768633843
1329 1 10.80959202082263 19.24917060553357 -1.860186963335148
1330 1 10.80959202082263 19.24917060553357 0.8809566447238522
1331 1 13.39388821692935 19.24903523406856 -0.06901924556860539
1332 1 15.97820408215075 19.24892946977712 1.726655948892231
1333 1 -0.8196490939963543 17.01177105766392 -4.385199823406681
1334 1 1.764617290654191 17.01161972023355 -5.362631169852207
1335 1 1.764617290654191 17.01161972023355 -2.621487561793208
1336 1 4.34887136230348 17.01141203801264 -3.594090165930364
1337 1 4.34887136230348 17.01141203801264 -0.8529465578713641
1338 1 6.93312486882472 17.01119989963476 -1.819390391374552
1339 1 6.93312486882472 17.01119989963476 0.921753216684448
1340 1 9.517392282283099 17.01101529617672 -0.03815826140783773
1341 1 12.10168263799336 17.01086919357469 1.749314863829014
1342 1 -4.696055676798225 14.77364735833524 -4.279384281145545
1343 1 -2.111792360309598 14.77367179197647 -5.269509605386506
1344 1 -2.111792360309598 14.77367179197647 -2.528365997327506
1345 1 0.4724632708841874 14.77353828360973 -3.516879405081416
1346 1 0.4724632708841874 14.77353828360973 -0.7757357970224156
1347 1 3.056701427620606 14.77330846243965 -1.758658296790847
1348 1 3.056701427620606 14.77330846243965 0.9824853112681529
1349 1 5.640936195650712 14.77306348378248 0.00753437895204212
1350 1 8.225189366864782 14.77285453951531 1.782373791242991
1351 1 -8.572369821020713 12.5351295162134 -4.14612291126626
1352 1 -5.988157242618755 12.53540411717471 -5.140676837697289
1353 1 -5.988157242618755 12.53540411717471 -2.39953322963829
1354 1 -3.403921570436863 12.53554547120802 -3.40177759772839
1355 1 -3.403921570436863 12.53554547120802 -0.6606339896693904
1356 1 -0.8196808021570399 12.53546536404458 -1.663964438100433
1357 1 -0.8196808021570399 12.53546536404458 1.077179169958567
1358 1 1.764537688634014 12.53521562057382 0.07984363914060522
1359 1 4.348747101720652 12.53492634359072 1.834280439346154
1360 1 -12.44861356038881 10.29644325743765 -4.00399497304354
1361 1 -9.864384270997974 10.29669456824548 -4.985383652181095
1362 1 -9.864384270997974 10.29669456824548 -2.244240044122095
1363 1 -7.280205866132604 10.2970363947191 -3.243091211371969
1364 1 -7.280205866132604 10.2970363947191 -0.5019476033129684
1365 1 -4.69602238123124 10.29734267277015 -1.516982034875837
1366 1 -4.69602238123124 10.29734267277015 1.224161573183163
1367 1 -2.111809785925232 10.29739185794237 0.2009944719717225
1368 1 0.4723839267498953 10.29713962548534 1.923572980759061
1369 1 -16.32507486040452 8.058014921900726 -3.87948735455915
1370 1 -13.74069977008994 8.058089064292975 -4.836745005986589
1371 1 -13.74069977008994 8.058089064292975 -2.095601397927588
1372 1 -11.15638861411027 8.058240048034012 -3.068647436113323
1373 1 -11.15638861411027 8.058240048034012 -0.3275038280543229
1374 1 -8.572179170783709 8.058530015982639 -1.322950022393572
1375 1 -8.572179170783709 8.058530015982639 1.418193585665428
1376 1 -5.988054840995801 8.058965634241522 0.3946685278774114
1377 1 -3.403910836863704 8.059273050232228 2.087912905302595
1378 1 -20.20180162566422 5.819808528427734 -3.784407164536105
1379 1 -17.61736648558215 5.819816992807808 -4.720993551023419
1380 1 -17.61736648558215 5.819816992807808 -1.979849942964419
1381 1 -15.0329303385973 5.819836519497572 -2.924687789731048
1382 1 -15.0329303385973 5.819836519497572 -0.1835441816720482
1383 1 -12.44851088722758 5.819884893409645 -1.141502723440733
1384 1 -12.44851088722758 5.819884893409645 1.599640884618267
1385 1 -9.864156890852676 5.820012840762691 0.6198930215078864
1386 1 -7.279961882041855 5.820344660290091 2.344936002899217
1387 1 -24.07861211457247 3.581666947501625 -3.715535786687663
1388 1 -21.4941963012498 3.581666973037248 -4.639153123855107
1389 1 -21.4941963012498 3.581666973037248 -1.898009515796108
1390 1 -18.90977006395708 3.581667340857677 -2.824715701538287
1391 1 -18.90977006395708 3.581667340857677 -0.08357209347928685
1392 1 -16.32532984373125 3.581668735243452 -1.015040925348981
1393 1 -16.32532984373125 3.581668735243452 1.726102682710019
1394 1 -13.74087191516086 3.581673432326115 0.7867736423892112
1395 1 -11.15639793929176 3.581690295832026 2.574404652094102
1396 1 -27.95539744900332 1.343533619764502 -3.665649500489797
1397 1 -25.37101041497795 1.343533570195669 -4.581960090666833
1398 1 -25.37101041497795 1.343533570195669 -1.840816482607833
1399 1 -22.78662028712974 1.343533502011667 -2.757802861303182
1400 1 -22.78662028712974 1.343533502011667 -0.01665925324418205
1401 1 -20.20222571324326 1.343533405300122 -0.9346244527984973
1402 1 -20.20222571324326 1.343533405300122 1.806519155260503
1403 1 -17.61782443229995 1.343533263711961 0.8870595880612238
1404 1 -15.0334123788043 1.343533052009896 2.706296142566961
1405 1 -31.83213332120818 -0.8946006448409957 -3.628738783532188
1406 1 -29.24776502139745 -0.8946006637317166 -4.541034419610028
1407 1 -29.24776502139745 -0.8946006637317166 -1.799890811551029
1408 1 -26.66339817011096 -0.8946006888801011 -2.711876197484723
1409 1 -26.66339817011096 -0.8946006888801011 0.02926741057427729
1410 1 -24.0790332942853 -0.8946007233448504 -0.8822936904047263
1411 1 -24.0790332942853 -0.8946007233448504 1.858849917654274
1412 1 -21.4946712103683 -0.8946007722577426 0.9478907485026297
1413 1 -18.91031325327866 -0.8946008446832735 2.778969853005039
1414 1 -33.1244668231678 -3.132735720331457 -4.510789525529442
1415 1 -33.1244668231678 -3.132735720331457 -1.769645917470442
1416 1 -30.54011108745447 -3.132735831279082 -2.679070060148005
1417 1 -30.54011108745447 -3.132735831279082 0.06207354791099517
1418 1 -27.95575903774619 -3.132735957288795 -0.8464738057778887
1419 1 -27.95575903774619 -3.132735957288795 1.894669802281111
1420 1 -25.37141179492079 -3.132736091121493 0.9872964669735635
1421 1 -22.7870709498525 -3.132736206768851 2.822688112255718
1422 1 -31.83243075180114 -5.370870597881155 -0.8207341398255432
1423 1 -31.83243075180114 -5.370870597881155 1.920409468233457
1424 1 -29.24808703399296 -5.37087045083458 1.014492833140438
1425 1 -26.66374848900073 -5.370870052662164 2.851347346915486
1426 1 -33.12472396518832 -7.609003651311077 1.034252366820766
1427 1 -30.54038303139852 -7.609002495635949 2.871426231370711
1428 1 10.80976297498658 28.2020034833418 -4.52811879555269
1429 1 13.39406542513418 28.20187714460906 -5.472921225796075
1430 1 13.39406542513418 28.20187714460906 -2.731777617737075
1431 1 15.97837292159569 28.20176102689001 -3.67419693719298
1432 1 15.97837292159569 28.20176102689001 -0.9330533291339799
1433 1 18.56268782252949 28.20165827656361 -1.873132912720121
1434 1 18.56268782252949 28.20165827656361 0.8680106953388789
1435 1 21.14701148857063 28.2015698314885 -0.06983407220031745
1436 1 23.73134436987052 28.20149519392757 1.735556834316107
1437 1 6.933287278086763 25.96402120113843 -4.488893533122841
1438 1 9.517581459883118 25.96387957698243 -5.439225535980589
1439 1 9.517581459883118 25.96387957698243 -2.69808192792159
1440 1 12.10187752729669 25.96374206260881 -3.645666838695662
1441 1 12.10187752729669 25.96374206260881 -0.9045232306366616
1442 1 14.68617955471257 25.96361658991347 -1.849297020787589
1443 1 14.68617955471257 25.96361658991347 0.8918465872714114
1444 1 17.27049050071333 25.96350705316745 -0.05017555713044142
1445 1 19.85481194358127 25.96341437229898 1.751555481008418
1446 1 3.056824032058642 23.72605373667246 -4.438506769104844
1447 1 5.64111441481591 23.7259122575104 -5.39563304987795
1448 1 5.64111441481591 23.7259122575104 -2.65448944181895
1449 1 8.225401088840439 23.72575768431701 -3.608675240870796
1450 1 8.225401088840439 23.72575768431701 -0.8675316328117958
1451 1 10.80968955287777 23.72560684899303 -1.818445039741707
1452 1 10.80968955287777 23.72560684899303 0.9226985683172932
1453 1 13.39398516126728 23.72547040295593 -0.02484932796719952
1454 1 15.97829169236225 23.72535324204502 1.772028122922675
1455 1 -0.8196311775666274 21.48805665895891 -4.37349195298496
1456 1 1.764661098836633 21.48795691232922 -5.338420112158131
1457 1 1.764661098836633 21.48795691232922 -2.597276504099131
1458 1 4.348944460759691 21.48780814513094 -3.559661154283405
1459 1 4.348944460759691 21.48780814513094 -0.8185175462244046
1460 1 6.93322222089899 21.48763843765174 -1.777443872496166
1461 1 6.93322222089899 21.48763843765174 0.9636997355628343
1462 1 9.517501478015403 21.48747146267682 0.008734031341302462
1463 1 12.10178945198115 21.48732197278804 1.799013242656596
1464 1 -4.696072925219242 19.24993041282668 -4.290825297472694
1465 1 -2.111783151446311 19.24994491601193 -5.263203480873736
1466 1 -2.111783151446311 19.24994491601193 -2.522059872814736
1467 1 0.472502894844435 19.24986354652098 -3.493699752907075
1468 1 0.472502894844435 19.24986354652098 -0.7525561448480748
1469 1 3.056778321411946 19.24971013082696 -1.721535532382161
1470 1 3.056778321411946 19.24971013082696 1.019608075676839
1471 1 5.641045380386759 19.24952275850575 0.05471783143966213
1472 1 8.225313267764909 19.24933584348958 1.835855531194616
1473 1 -8.572464066414105 17.01156214534013 -4.190702391624022
1474 1 -5.988201897103353 17.01173590481172 -5.16692380300961
1475 1 -5.988201897103353 17.01173590481172 -2.42578019495061
1476 1 -3.403926612748375 17.01181541015073 -3.405269613642135
1477 1 -3.403926612748375 17.01181541015073 -0.6641260055831354
1478 1 -0.8196490939963543 17.01177105766392 -1.64405621534868
1479 1 -0.8196490939963543 17.01177105766392 1.09708739271032
1480 1 1.764617290654191 17.01161972023355 0.1196560462647918
1481 1 4.34887136230348 17.01141203801264 1.888197050186636
1482 1 -12.44877902829263 14.77299730098229 -4.080106314224832
1483 1 -9.864540933621548 14.77323517763502 -5.05253736071039
1484 1 -9.864540933621548 14.77323517763502 -2.31139375265139
1485 1 -7.28030603472585 14.77347705279672 -3.292151762391991
1486 1 -7.28030603472585 14.77347705279672 -0.5510081543329913
1487 1 -4.696055676798225 14.77364735833524 -1.538240673086545
1488 1 -4.696055676798225 14.77364735833524 1.202902934972455
1489 1 -2.111792360309598 14.77367179197647 0.2127776107304942
1490 1 0.4724632708841874 14.77353828360973 1.965407811035585
1491 1 -16.32512293628045 12.53447835207201 -3.971983260553808
1492 1 -13.74083029162334 12.53462915843944 -4.932709490133968
1493 1 -13.74083029162334 12.53462915843944 -2.191565882074968
1494 1 -11.15658334804715 12.53484883839648 -3.162904837859384
1495 1 -11.15658334804715 12.53484883839648 -0.4217612298003838
1496 1 -8.572369821020713 12.5351295162134 -1.40497930320826
1497 1 -8.572369821020713 12.5351295162134 1.33616430485074
1498 1 -5.988157242618755 12.53540411717471 0.34161037841971
1499 1 -3.403921570436863 12.53554547120802 2.08050961838861
1500 1 -20.20163826038648 10.29614696368339 -3.877739601173708
1501 1 -17.61725766286051 10.29619838541403 -4.823879359618367
1502 1 -17.61725766286051 10.29619838541403 -2.082735751559368
1503 1 -15.03290954332106 10.29628817211962 -3.037562496241887
1504 1 -15.03290954332106 10.29628817211962 -0.2964188881828865
1505 1 -12.44861356038881 10.29644325743765 -1.26285136498554
1506 1 -12.44861356038881 10.29644325743765 1.47829224307346
1507 1 -9.864384270997974 10.29669456824548 0.4969035639359047
1508 1 -7.280205866132604 10.2970363947191 2.239196004745032
1509 1 -24.07831754327225 8.057948887523757 -3.801639834425307
1510 1 -21.49389781778115 8.05795905720036 -4.73526617001765
1511 1 -21.49389781778115 8.05795905720036 -1.99412256195865
1512 1 -18.90948052148331 8.057978050898324 -2.933056605497441
1513 1 -18.90948052148331 8.057978050898324 -0.1919129974384409
1514 1 -16.32507486040452 8.058014921900726 -1.13834374650015
1515 1 -16.32507486040452 8.058014921900726 1.60279986155885
1516 1 -13.74069977008994 8.058089064292975 0.6455422101304112
1517 1 -11.15638861411027 8.058240048034012 2.413639780003678
1518 1 -27.95506771163434 5.819801929319325 -3.742286137539789
1519 1 -25.37065237462432 5.81980280796212 -4.667008425750433
1520 1 -25.37065237462432 5.81980280796212 -1.925864817691433
1521 1 -22.78623053420125 5.819804648355796 -2.85326278904576
1522 1 -22.78623053420125 5.819804648355796 -0.1121191809867599
1523 1 -20.20180162566422 5.819808528427734 -1.043263556477105
1524 1 -20.20180162566422 5.819808528427734 1.697880051581895
1525 1 -17.61736648558215 5.819816992807808 0.7612936650935808
1526 1 -15.0329303385973 5.819836519497572 2.557599426385952
1527 1 -31.83182015366715 3.581667269691341 -3.696281080980962
1528 1 -29.24742240081731 3.581667152017284 -4.615172752648881
1529 1 -29.24742240081731 3.581667152017284 -1.874029144589882
1530 1 -26.663020176621 3.581667034605258 -2.794030023315201
1531 1 -26.663020176621 3.581667034605258 -0.05288641525620119
1532 1 -24.07861211457247 3.581666947501625 -0.9743921786296637
1533 1 -24.07861211457247 3.581666947501625 1.766751429429337
1534 1 -21.4941963012498 3.581666973037248 0.8431340922618923
1535 1 -18.90977006395708 3.581667340857677 2.657571514578713
1536 1 -33.12416537287353 1.343533685128414 -4.575505324104431
1537 1 -33.12416537287353 1.343533685128414 -1.834361716045431
1538 1 -30.53978224563008 1.343533656797188 -2.749824980146261
1539 1 -30.53978224563008 1.343533656797188 -0.008681372087261274
1540 1 -27.95539744900332 1.343533619764502 -0.9245058924317968
1541 1 -27.95539744900332 1.343533619764502 1.816637715627203
1542 1 -25.37101041497795 1.343533570195669 0.9003271254501668
1543 1 -22.78662028712974 1.343533502011667 2.724484354813818
1544 1 -31.83213332120818 -0.8946006448409957 -0.8875951754741878
1545 1 -31.83213332120818 -0.8946006448409957 1.853548432584812
1546 1 -29.24776502139745 -0.8946006637317166 0.9412527965069708
1547 1 -26.66339817011096 -0.8946006888801011 2.770411018632277
1548 1 -33.1244668231678 -3.132735720331457 0.9714976905875574
1549 1 -30.54011108745447 -3.132735831279082 2.803217155968995
1550 1 3.056853946111212 28.20236788657033 -4.421609537958835
1551 1 5.641160299752514 28.20225939212565 -5.372805719716915
1552 1 5.641160299752514 28.20225939212565 -2.631662111657915
1553 1 8.22546240213631 28.20213398251083 -3.580978700044327
1554 1 8.22546240213631 28.20213398251083 -0.8398350919853265
1555 1 10.80976297498658 28.2020034833418 -1.786975187494691
1556 1 10.80976297498658 28.2020034833418 0.9541684205643095
1557 1 13.39406542513418 28.20187714460906 0.009365990320924444
1558 1 15.97837292159569 28.20176102689001 1.80809027892402
1559 1 -0.8196196334218357 25.96433444754726 -4.365792724689932
1560 1 1.764688556931142 25.96426426127351 -5.322233885879291
1561 1 1.764688556931142 25.96426426127351 -2.581090277820292
1562 1 4.348990679938497 25.9641546141752 -3.536042118935965
1563 1 4.348990679938497 25.9641546141752 -0.7948985108769647
1564 1 6.933287278086763 25.96402120113843 -1.747749925064841
1565 1 6.933287278086763 25.96402120113843 0.9933936829941596
1566 1 9.517581459883118 25.96387957698243 0.04306168013641032
1567 1 12.10187752729669 25.96374206260881 1.836620377421339
1568 1 -4.696083503471981 23.72620624306045 -4.297963731701406
1569 1 -2.111777447800153 23.72621582034152 -5.259276508506491
1570 1 -2.111777447800153 23.72621582034152 -2.518132900447491
1571 1 0.4725265481257961 23.72616134934925 -3.479048796027765
1572 1 0.4725265481257961 23.72616134934925 -0.7379051879687649
1573 1 3.056824032058642 23.72605373667246 -1.697363161046844
1574 1 3.056824032058642 23.72605373667246 1.043780447012156
1575 1 5.64111441481591 23.7259122575104 0.08665416623904987
1576 1 8.225401088840439 23.72575768431701 1.873611975246204
1577 1 -8.57251641395537 21.48791718015663 -4.218168097572749
1578 1 -5.988226751209947 21.4880340874301 -5.1824731101628
1579 1 -5.988226751209947 21.4880340874301 -2.4413295021038
1580 1 -3.403929541309184 21.4880846956699 -3.407300824796908
1581 1 -3.403929541309184 21.4880846956699 -0.6661572167379083
1582 1 -0.8196311775666274 21.48805665895891 -1.63234834492696
1583 1 -0.8196311775666274 21.48805665895891 1.10879526313204
1584 1 1.764661098836633 21.48795691232922 0.1438671039588684
1585 1 4.348944460759691 21.48780814513094 1.922626061833596
1586 1 -12.44889468482783 19.24946676179324 -4.129496190037534
1587 1 -9.864628506749865 19.24965704103296 -5.093016504241699
1588 1 -9.864628506749865 19.24965704103296 -2.3518728961827
1589 1 -7.280356194697005 19.24982447110685 -3.319779772662059
1590 1 -7.280356194697005 19.24982447110685 -0.578636164603059
1591 1 -4.696072925219242 19.24993041282668 -1.549681689414694
1592 1 -4.696072925219242 19.24993041282668 1.191461918644306
1593 1 -2.111783151446311 19.24994491601193 0.2190837352432637
1594 1 0.472502894844435 19.24986354652098 1.988587463209925
1595 1 -16.32524612659167 17.01096847542845 -4.038368702353501
1596 1 -13.74097260981262 17.01114216975003 -4.996409232034352
1597 1 -13.74097260981262 17.01114216975003 -2.255265623975352
1598 1 -11.15671639439113 17.01134848183783 -3.219806270972146
1599 1 -11.15671639439113 17.01134848183783 -0.4786626629131461
1600 1 -8.572464066414105 17.01156214534013 -1.449558783565022
1601 1 -8.572464066414105 17.01156214534013 1.291584824493978
1602 1 -5.988201897103353 17.01173590481172 0.3153634131073897
1603 1 -3.403926612748375 17.01181541015073 2.077017602474865
1604 1 -20.20166059194248 14.77255956624012 -3.952298191740633
1605 1 -17.61733480241272 14.7726597660545 -4.901461878294294
1606 1 -17.61733480241272 14.7726597660545 -2.160318270235295
1607 1 -15.03304058170278 14.77280304326315 -3.116268404073994
1608 1 -15.03304058170278 14.77280304326315 -0.3751247960149935
1609 1 -12.44877902829263 14.77299730098229 -1.338962706166831
1610 1 -12.44877902829263 14.77299730098229 1.402180901892169
1611 1 -9.864540933621548 14.77323517763502 0.4297498554066097
1612 1 -7.28030603472585 14.77347705279672 2.190135453725009
1613 1 -24.07820135535706 12.53427988546634 -3.876629369799286
1614 1 -21.49381918203695 12.53431902986909 -4.816158628992182
1615 1 -21.49381918203695 12.53431902986909 -2.075015020933182
1616 1 -18.90945624415102 12.53438081974226 -3.020015123574018
1617 1 -18.90945624415102 12.53438081974226 -0.2788715155150187
1618 1 -16.32512293628045 12.53447835207201 -1.230839652495807
1619 1 -16.32512293628045 12.53447835207201 1.510303955563193
1620 1 -13.74083029162334 12.53462915843944 0.5495777259830317
1621 1 -11.15658334804715 12.53484883839648 2.319382378257616
1622 1 -27.95485274563211 10.29608872253884 -3.813221714798827
1623 1 -25.37044309483804 10.29609945670541 -4.744373744590895
1624 1 -25.37044309483804 10.29609945670541 -2.003230136531896
1625 1 -22.78603649625549 10.29611713741842 -2.938062562580815
1626 1 -22.78603649625549 10.29611713741842 -0.1969189545218153
1627 1 -20.20163826038648 10.29614696368339 -1.136595993115708
1628 1 -20.20163826038648 10.29614696368339 1.604547614943292
1629 1 -17.61725766286051 10.29619838541403 0.6584078564986322
1630 1 -15.03290954332106 10.29628817211962 2.444724719875114
1631 1 -31.83156159793657 8.057938168600636 -3.761379376198717
1632 1 -29.24715045096446 8.057940037038918 -4.686104663073816
1633 1 -29.24715045096446 8.057940037038918 -1.944961055014816
1634 1 -26.66273561918859 8.057943250334764 -2.871867066864883
1635 1 -26.66273561918859 8.057943250334764 -0.1307234588058828
1636 1 -24.07831754327225 8.057948887523757 -1.060496226367307
1637 1 -24.07831754327225 8.057948887523757 1.680647381691693
1638 1 -21.49389781778115 8.05795905720036 0.7470210460993496
1639 1 -18.90948052148331 8.057978050898324 2.549230610619559
1640 1 -33.12388250699719 5.819801360436363 -4.639419254378131
1641 1 -33.12388250699719 5.819801360436363 -1.898275646319131
1642 1 -30.53947745575671 5.819801524583939 -2.81953523755367
1643 1 -30.53947745575671 5.819801524583939 -0.07839162949466982
1644 1 -27.95506771163434 5.819801929319325 -1.00114252948179
1645 1 -27.95506771163434 5.819801929319325 1.740001078577211
1646 1 -25.37065237462432 5.81980280796212 0.8152787903665668
1647 1 -22.78623053420125 5.819804648355796 2.62902442707124
1648 1 -31.83182015366715 3.581667269691341 -0.9551374729229622
1649 1 -31.83182015366715 3.581667269691341 1.786006135136038
1650 1 -29.24742240081731 3.581667152017284 0.867114463468118
1651 1 -26.663020176621 3.581667034605258 2.688257192801799
1652 1 -33.12416537287353 1.343533685128414 0.9067818920125684
1653 1 -30.53978224563008 1.343533656797188 2.732462235970739
1654 1 -4.696090663027886 28.20247900416904 -4.302839660811987
1655 1 -2.11177356531558 28.20248579153603 -5.256595907120335
1656 1 -2.11177356531558 28.20248579153603 -2.515452299061336
1657 1 0.4725422825267174 28.20244687327089 -3.468971341329861
1658 1 0.4725422825267174 28.20244687327089 -0.727827733270861
1659 1 3.056853946111212 28.20236788657033 -1.680465929900835
1660 1 3.056853946111212 28.20236788657033 1.060677678158165
1661 1 5.641160299752514 28.20225939212565 0.1094814964000843
1662 1 8.22546240213631 28.20213398251083 1.901308516072674
1663 1 -8.572549139997696 25.96423560547377 -4.236651825350069
1664 1 -5.988242607382878 25.96431879594469 -5.192732967902346
1665 1 -5.988242607382878 25.96431879594469 -2.451589359843346
1666 1 -3.403931454300871 25.9643537367222 -3.408628648059408
1667 1 -3.403931454300871 25.9643537367222 -0.6674850400004081
1668 1 -0.8196196334218357 25.96433444754726 -1.624649116631932
1669 1 -0.8196196334218357 25.96433444754726 1.116494491427068
1670 1 1.764688556931142 25.96426426127351 0.1600533302377078
1671 1 4.348990679938497 25.9641546141752 1.946245097181035
1672 1 -12.44896995189086 23.72586752750353 -4.163333732077666
1673 1 -9.864681159548738 23.72601488068485 -5.119654275133247
1674 1 -9.864681159548738 23.72601488068485 -2.378510667074247
1675 1 -7.280385904109002 23.72613459327941 -3.33736903907718
1676 1 -7.280385904109002 23.72613459327941 -0.5962254310181802
1677 1 -4.696083503471981 23.72620624306045 -1.556820123643406
1678 1 -4.696083503471981 23.72620624306045 1.184323484415594
1679 1 -2.111777447800153 23.72621582034152 0.2230107076105086
1680 1 0.4725265481257961 23.72616134934925 2.003238420089235
1681 1 -16.32535603917258 21.48742550314127 -4.086279574326877
1682 1 -13.74107491624153 21.48758845294925 -5.04005186682002
1683 1 -13.74107491624153 21.48758845294925 -2.298908258761021
1684 1 -11.15679753847309 21.48775943269709 -3.256715102280448
1685 1 -11.15679753847309 21.48775943269709 -0.5155714942214481
1686 1 -8.57251641395537 21.48791718015663 -1.47702448951475
1687 1 -8.57251641395537 21.48791718015663 1.264119118544251
1688 1 -5.988226751209947 21.4880340874301 0.2998141059542003
1689 1 -3.403929541309184 21.4880846956699 2.074986391320092
1690 1 -20.20175006843151 19.24900140077621 -4.010074514877207
1691 1 -17.61744817782218 19.249127814598 -4.958688674220089
1692 1 -17.61744817782218 19.249127814598 -2.217545066161089
1693 1 -15.03316480560439 19.2492846623806 -3.170977382039891
1694 1 -15.03316480560439 19.2492846623806 -0.4298337739808912
1695 1 -12.44889468482783 19.24946676179324 -1.388352581979533
1696 1 -12.44889468482783 19.24946676179324 1.352791026079467
1697 1 -9.864628506749865 19.24965704103296 0.3892707118753002
1698 1 -7.280356194697005 19.24982447110685 2.162507443454941
1699 1 -24.07821030152724 17.0106616660331 -3.93901877145633
1700 1 -21.49386633108894 17.010733816434 -4.880971272388265
1701 1 -21.49386633108894 17.010733816434 -2.139827664329266
1702 1 -18.90954386297837 17.01083366520583 -3.086405501961673
1703 1 -18.90954386297837 17.01083366520583 -0.3452618939026733
1704 1 -16.32524612659167 17.01096847542845 -1.297225094295501
1705 1 -16.32524612659167 17.01096847542845 1.443918513763499
1706 1 -13.74097260981262 17.01114216975003 0.4858779840826479
1707 1 -11.15671639439113 17.01134848183783 2.262480945144854
1708 1 -27.95476427196122 14.77241326988295 -3.875861238895358
1709 1 -25.37038178752331 14.77244479148676 -4.811013349124641
1710 1 -25.37038178752331 14.77244479148676 -2.069869741065642
1711 1 -22.78601190093683 14.77249116265222 -3.008776426615809
1712 1 -22.78601190093683 14.77249116265222 -0.2676328185568089
1713 1 -20.20166059194248 14.77255956624012 -1.211154583682633
1714 1 -20.20166059194248 14.77255956624012 1.529989024376367
1715 1 -17.61733480241272 14.7726597660545 0.5808253378227051
1716 1 -15.03304058170278 14.77280304326315 2.366018812043007
1717 1 -31.83139770622502 12.53422782305639 -3.821529652561947
1718 1 -29.24699488811871 12.53423856215699 -4.750684937915683
1719 1 -29.24699488811871 12.53423856215699 -2.009541329856684
1720 1 -26.66259499850903 12.53425483309876 -2.94139214306753
1721 1 -26.66259499850903 12.53425483309876 -0.2002485350085301
1722 1 -24.07820135535706 12.53427988546634 -1.135485761741286
1723 1 -24.07820135535706 12.53427988546634 1.605657846317714
1724 1 -21.49381918203695 12.53431902986909 0.6661285871248179
1725 1 -18.90945624415102 12.53438081974226 2.462272092542982
1726 1 -33.12367110783737 10.29607783139484 -4.699962862046019
1727 1 -33.12367110783737 10.29607783139484 -1.958819253987019
1728 1 -30.53926257332944 10.29608205585965 -2.884908609779331
1729 1 -30.53926257332944 10.29608205585965 -0.1437650017203311
1730 1 -27.95485274563211 10.29608872253884 -1.072078106740827
1731 1 -27.95485274563211 10.29608872253884 1.669065501318173
1732 1 -25.37044309483804 10.29609945670541 0.7379134715261041
1733 1 -22.78603649625549 10.29611713741842 2.544224653536185
1734 1 -31.83156159793657 8.057938168600636 -1.020235768140717
1735 1 -31.83156159793657 8.057938168600636 1.720907839918283
1736 1 -29.24715045096446 8.057940037038918 0.7961825530431836
1737 1 -26.66273561918859 8.057943250334764 2.610420149252117
1738 1 -33.12388250699719 5.819801360436363 0.8428679617388682
1739 1 -30.53947745575671 5.819801524583939 2.66275197856333
1740 1 -12.44902053871067 28.20222390946138 -4.187695663123913
1741 1 -9.864715639898243 28.20233865999818 -5.138384585604206
1742 1 -9.864715639898243 28.20233865999818 -2.397240977545207
1743 1 -7.280405521721074 28.20242751620847 -3.349512974684331
1744 1 -7.280405521721074 28.20242751620847 -0.6083693666253315
1745 1 -4.696090663027886 28.20247900416904 -1.561696052753987
1746 1 -4.696090663027886 28.20247900416904 1.179447555305013
1747 1 -2.11177356531558 28.20248579153603 0.2256913089966639
1748 1 0.4725422825267174 28.20244687327089 2.013315874787139
1749 1 -16.32543918000342 25.96383850792758 -4.121697725000794
1750 1 -13.74114491723491 25.96398000258739 -5.071246592054274
1751 1 -13.74114491723491 25.96398000258739 -2.330102983995275
1752 1 -11.15684944381718 25.96411731544281 -3.282256121196234
1753 1 -11.15684944381718 25.96411731544281 -0.5411125131372335
1754 1 -8.572549139997696 25.96423560547377 -1.495508217292069
1755 1 -8.572549139997696 25.96423560547377 1.245635390766931
1756 1 -5.988242607382878 25.96431879594469 0.2895542482146538
1757 1 -3.403931454300871 25.9643537367222 2.073658568057592
1758 1 -20.20184507036321 23.72543407180216 -4.054707506238066
1759 1 -17.61754657767487 23.72556514948377 -5.001286355237702
1760 1 -17.61754657767487 23.72556514948377 -2.260142747178702
1761 1 -15.03325653529209 23.72571258075456 -3.210077618959976
1762 1 -15.03325653529209 23.72571258075456 -0.4689340109009762
1763 1 -12.44896995189086 23.72586752750353 -1.422190124019665
1764 1 -12.44896995189086 23.72586752750353 1.318953484039335
1765 1 -9.864681159548738 23.72601488068485 0.3626329409837528
1766 1 -7.280385904109002 23.72613459327941 2.14491817703982
1767 1 -24.07827566515844 21.48706932262515 -3.98978600145406
1768 1 -21.49395372781271 21.48716414592967 -4.931963150480623
1769 1 -21.49395372781271 21.48716414592967 -2.190819542421623
1770 1 -18.90964761805631 21.48728264854893 -3.136594896521453
1771 1 -18.90964761805631 21.48728264854893 -0.3954512884624527
1772 1 -16.32535603917258 21.48742550314127 -1.345135966268877
1773 1 -16.32535603917258 21.48742550314127 1.396007641790123
1774 1 -13.74107491624153 21.48758845294925 0.4422353492969791
1775 1 -11.15679753847309 21.48775943269709 2.225572113836552
1776 1 -27.9547657591427 19.24877465047688 -3.929471776708819
1777 1 -25.37041113675538 19.24882974823844 -4.866556733992451
1778 1 -25.37041113675538 19.24882974823844 -2.125413125933451
1779 1 -22.78607159995632 19.24890360967047 -3.06582327622782
1780 1 -22.78607159995632 19.24890360967047 -0.3246796681688201
1781 1 -20.20175006843151 19.24900140077621 -1.268930906819207
1782 1 -20.20175006843151 19.24900140077621 1.472212701239793
1783 1 -17.61744817782218 19.249127814598 0.5235985418969107
1784 1 -15.03316480560439 19.2492846623806 2.311309834077109
1785 1 -31.83132707595534 17.01054692740244 -3.875297942324891
1786 1 -29.2469447359757 17.01057327755644 -4.807339677600053
1787 1 -29.2469447359757 17.01057327755644 -2.066196069541054
1788 1 -26.66257124165075 17.01061008366511 -3.000971735982791
1789 1 -26.66257124165075 17.01061008366511 -0.2598281279237912
1790 1 -24.07821030152724 17.0106616660331 -1.19787516339833
1791 1 -24.07821030152724 17.0106616660331 1.54326844466067
1792 1 -21.49386633108894 17.010733816434 0.6013159437287343
1793 1 -18.90954386297837 17.01083366520583 2.395881714155327
1794 1 -33.12355017315242 14.77237671210666 -4.75531420518724
1795 1 -33.12355017315242 14.77237671210666 -2.01417059712824
1796 1 -30.53915481021669 14.77239167025383 -2.943766061785619
1797 1 -30.53915481021669 14.77239167025383 -0.2026224537266182
1798 1 -27.95476427196122 14.77241326988295 -1.134717630837358
1799 1 -27.95476427196122 14.77241326988295 1.606425977221642
1800 1 -25.37038178752331 14.77244479148676 0.671273866992358
1801 1 -22.78601190093683 14.77249116265222 2.473510789501191
1802 1 -31.83139770622502 12.53422782305639 -1.080386044503947
1803 1 -31.83139770622502 12.53422782305639 1.660757563555053
1804 1 -29.24699488811871 12.53423856215699 0.7316022782013158
1805 1 -26.66259499850903 12.53425483309876 2.54089507304947
1806 1 -33.12367110783737 10.29607783139484 0.7823243540709809
1807 1 -30.53926257332944 10.29608205585965 2.597378606337669
1808 1 -20.20192622136586 28.20184197651402 -4.089547878387894
1809 1 -17.61762260386412 28.20196580077197 -5.033658600065172
1810 1 -17.61762260386412 28.20196580077197 -2.292514992006172
1811 1 -15.03332184988048 28.20209588877017 -3.238987115316085
1812 1 -15.03332184988048 28.20209588877017 -0.4978435072570849
1813 1 -12.44902053871067 28.20222390946138 -1.446552055065912
1814 1 -12.44902053871067 28.20222390946138 1.294591552993088
1815 1 -9.864715639898243 28.20233865999818 0.3439026305127935
1816 1 -7.280405521721074 28.20242751620847 2.132774241432669
1817 1 -24.07835488685508 25.96347826887027 -4.030862036308524
1818 1 -21.49404098092607 25.96358285797103 -4.97210915647185
1819 1 -21.49404098092607 25.96358285797103 -2.230965548412851
1820 1 -18.90973659787963 25.96370390440829 -3.174929470243657
1821 1 -18.90973659787963 25.96370390440829 -0.4337858621846573
1822 1 -16.32543918000342 25.96383850792758 -1.380554116942794
1823 1 -16.32543918000342 25.96383850792758 1.360589491116206
1824 1 -13.74114491723491 25.96398000258739 0.411040624062725
1825 1 -11.15684944381718 25.96411731544281 2.200031094920766
1826 1 -27.95481410143188 23.72515784949891 -3.974586682654607
1827 1 -25.37047830127933 23.72523143173826 -4.912172990691188
1828 1 -25.37047830127933 23.72523143173826 -2.171029382632188
1829 1 -22.78615521733468 23.72532285127326 -3.111361691919023
1830 1 -22.78615521733468 23.72532285127326 -0.3702180838600232
1831 1 -20.20184507036321 23.72543407180216 -1.313563898180066
1832 1 -20.20184507036321 23.72543407180216 1.427579709878934
1833 1 -17.61754657767487 23.72556514948377 0.4810008608792977
1834 1 -15.03325653529209 23.72571258075456 2.272209597157024
1835 1 -31.83132420671284 21.48689392296107 -3.922283614260322
1836 1 -29.24696296933928 21.48693786057137 -4.855885749389732
1837 1 -29.24696296933928 21.48693786057137 -2.114742141330733
1838 1 -26.6626126977681 21.48699513957727 -3.050838164111501
1839 1 -26.6626126977681 21.48699513957727 -0.309694556052501
1840 1 -24.07827566515844 21.48706932262515 -1.24864239339606
1841 1 -24.07827566515844 21.48706932262515 1.49250121466294
1842 1 -21.49395372781271 21.48716414592967 0.5503240656363764
1843 1 -18.90964761805631 21.48728264854893 2.345692319595547
1844 1 -33.12350777476161 19.24870337965231 -4.80458540730963
1845 1 -33.12350777476161 19.24870337965231 -2.06344179925063
1846 1 -30.53913227860143 19.24873374781806 -2.995238843176553
1847 1 -30.53913227860143 19.24873374781806 -0.2540952351175526
1848 1 -27.9547657591427 19.24877465047688 -1.188328168650819
1849 1 -27.9547657591427 19.24877465047688 1.552815439408181
1850 1 -25.37041113675538 19.24882974823844 0.6157304821245487
1851 1 -22.78607159995632 19.24890360967047 2.41646393988918
1852 1 -31.83132707595534 17.01054692740244 -1.134154334266891
1853 1 -31.83132707595534 17.01054692740244 1.606989273792109
1854 1 -29.2469447359757 17.01057327755644 0.6749475385169464
1855 1 -26.66257124165075 17.01061008366511 2.481315480134209
1856 1 -33.12355017315242 14.77237671210666 0.7269730109297597
1857 1 -30.53915481021669 14.77239167025383 2.538521154331382
1858 1 -27.95487937896115 28.20154668758928 -4.012318031802593
1859 1 -25.37055303542868 28.20163099020808 -4.949540442485367
1860 1 -25.37055303542868 28.20163099020808 -2.208396834426368
1861 1 -22.78623567508552 28.20172956689747 -3.147815277919574
1862 1 -22.78623567508552 28.20172956689747 -0.4066716698605745
1863 1 -20.20192622136586 28.20184197651402 -1.348404270329894
1864 1 -20.20192622136586 28.20184197651402 1.392739337729106
1865 1 -17.61762260386412 28.20196580077197 0.4486286160518274
1866 1 -15.03332184988048 28.20209588877017 2.243300100800915
1867 1 -31.83136039395668 25.96325915202137 -3.962801275010766
1868 1 -29.24701491021508 25.9633180249343 -4.896985955037562
1869 1 -29.24701491021508 25.9633180249333 -2.155842346978554
1870 1 -26.66267950797508 25.96339041013556 -3.092172551494861
1871 1 -26.66267950797508 25.96339041013456 -0.3510289434358524
1872 1 -24.07835488685508 25.96347826887027 -1.289718428250524
1873 1 -24.07835488685508 25.96347826886927 1.451425179808484
1874 1 -21.49404098092607 25.96358285797103 0.5101780596451493
1875 1 -18.90973659787963 25.96370390440829 2.307357745873343
1876 1 -33.12351876946506 23.72505331962721 -4.847676450396013
1877 1 -33.12351876946506 23.72505331962721 -2.106532842337013
1878 1 -30.5391614596468 23.72509939986191 -3.039464789958611
1879 1 -30.5391614596468 23.72509939986191 -0.2983211818996105
1880 1 -27.95481410143188 23.72515784949891 -1.233443074596607
1881 1 -27.95481410143188 23.72515784949891 1.507700533462393
1882 1 -25.37047830127933 23.72523143173826 0.5701142254258122
1883 1 -22.78615521733468 23.72532285127326 2.370925524197977
1884 1 -31.83132420671284 21.48689392296107 -1.181140006202322
1885 1 -31.83132420671284 21.48689392296107 1.560003601856678
1886 1 -29.24696296933928 21.48693786057137 0.626401466727267
1887 1 -26.6626126977681 21.48699513957727 2.431449052005499
1888 1 -33.12350777476161 19.24870337965231 0.6777018088073695
1889 1 -30.53913227860143 19.24873374781806 2.487048372940448
1890 1 -33.12355928392966 28.20141711829002 -4.884990067060367
1891 1 -33.12355928392966 28.20141711829002 -2.143846459001367
1892 1 -30.53921492781835 28.2014758715515 -3.077141659178058
1893 1 -30.53921492781835 28.2014758715515 -0.3359980511190575
1894 1 -27.95487937896115 28.20154668758928 -1.271174423743593
1895 1 -27.95487937896115 28.20154668758928 1.469969184315408
1896 1 -25.37055303542868 28.20163099020808 0.5327467736316321
1897 1 -22.78623567508552 28.20172956689747 2.334471938197426
1898 1 -31.83136039395668 25.96325915202237 -1.221657666952774
1899 1 -31.83136039395668 25.96325915202237 1.519485941106226
1900 1 -29.24701491021508 25.9633180249343 0.5853012610794375
1901 1 -26.66267950797508 25.96339041013556 2.390114664622139
1902 1 -33.12351876946506 23.72505331962721 0.6346107657209866
1903 1 -30.5391614596468 23.72509939986191 2.44282242615839
1904 1 -33.12355928392966 28.20141711829002 0.5972971490566323
1905 1 -30.53921492781835 28.2014758715515 2.405145556938943
