LAMMPS (22 Jul 2025 - Update 4)
OMP_NUM_THREADS environment is not set. Defaulting to 1 thread.
  using 1 OpenMP thread(s) per MPI task
# Relax one dislocation in a p p s slab (x glide direction, y line, z glide-plane normal).
# Required -var:  name      cell basename (…_cut.lmp in celldir)
#                 celldir   directory with the cut cell and box-correction_<name>.lmp
#                 outdir    output directory
#                 pot       eam/alloy file;  elem  element name in it
#                 corr      0 = box as built (uncorrected),  1 = corrected period vector (Lx', delta)
# corr 1 reads <name>_corrected-period-vector.lmp from apply_period_vector.py: a TRICLINIC cell in the
# frame X = line, Y = -glide, Z = normal (LAMMPS can only tilt its second box vector, see that script).
units           metal
atom_style      atomic
boundary        p p s
if "${corr} == 1" then   "read_data ${celldir}/${name}_corrected-period-vector.lmp"   "variable variant string corrected" else   "read_data ${celldir}/${name}_cut.lmp"   "variable variant string uncorrected"
read_data ${celldir}/${name}_corrected-period-vector.lmp
read_data out/cells/${name}_corrected-period-vector.lmp
read_data out/cells/Ni_60deg_x-211_y0-11_z111_corrected-period-vector.lmp
Reading data file ...
  triclinic box = (0 0 0) to (29.868189 145.49969 146.32365) with tilt (-0.62225397 0 0)
  1 by 1 by 1 MPI processor grid
  reading atoms ...
  58320 atoms
  read_data CPU = 0.134 seconds
variable variant string corrected
include         ${celldir}/box-correction_${name}.lmp
include         out/cells/box-correction_${name}.lmp
include         out/cells/box-correction_Ni_60deg_x-211_y0-11_z111.lmp
# written by build_single_dislocation_cell.py for Ni_60deg_x-211_y0-11_z111
variable Lx_built  equal 146.5774652081
variable Lx_corr   equal 145.4996897287   # = (L_top + L_bot)/2
variable xy_corr   equal 0.6222539674   # = <dU_y> over the halves
variable z_glide   equal 72.1457000000
variable x_line    equal 73.2887326041
variable z_fix_lo  equal 5.796819   # 3 (111) layers per face held in z
variable z_fix_hi  equal 138.494560
variable b_edge    equal 2.1555509736
variable b_screw   equal 1.2445079349

pair_style      eam/alloy
pair_coeff      * * ${pot} ${elem}
pair_coeff      * * Cu_Ni_Fischer_2018.eam.alloy ${elem}
pair_coeff      * * Cu_Ni_Fischer_2018.eam.alloy Ni

# 2D-dynamic boundary (Rodney): the 3 outermost (111) layers per z-face move only in x and y
region          r_lo block INF INF INF INF INF ${z_fix_lo} units box
region          r_lo block INF INF INF INF INF 5.796819 units box
region          r_hi block INF INF INF INF ${z_fix_hi} INF units box
region          r_hi block INF INF INF INF 138.49456 INF units box
group           g_lo region r_lo
2448 atoms in group g_lo
group           g_hi region r_hi
2412 atoms in group g_hi
group           g_surf union g_lo g_hi
4860 atoms in group g_surf
fix             f_2d g_surf setforce NULL NULL 0.0

compute         pe all pe/atom
compute         s all stress/atom NULL
compute         cna all cna/atom 3.006
thermo          200
thermo_style    custom step pe fnorm pxx pyy pzz pxy pxz pyz
thermo_modify   format float %.8g

min_style       fire
minimize        0.0 1.0e-4 50000 100000
Neighbor list info ...
  update: every = 1 steps, delay = 0 steps, check = yes
  max neighbors/atom: 2000, page size: 100000
  master list distance cutoff = 8.724884
  ghost atom cutoff = 8.724884
  binsize = 4.362442, bins = 7 34 34
  2 neighbor lists, perpetual/occasional/extra = 1 1 0
  (1) pair eam/alloy, perpetual
      attributes: half, newton on
      pair build: half/bin/atomonly/newton/tri
      stencil: half/bin/3d/tri
      bin: standard
  (2) compute cna/atom, occasional
      attributes: full, newton on
      pair build: full/bin/atomonly
      stencil: full/bin/3d
      bin: standard
  Parameters for fire:
    dmax  delaystep dtgrow dtshrink alpha0 alphashrink tmax tmin   integrator   halfstepback   abcfire  
     0.1     20      1.1     0.5     0.25     0.99      10  0.02 eulerimplicit      yes          no     
Per MPI rank memory allocation (min/avg/max) = 57.37 | 57.37 | 57.37 Mbytes
   Step         PotEng         Fnorm           Pxx            Pyy            Pzz            Pxy            Pxz            Pyz      
         0  -258259.58 21.296889 559.03897 3165.0071 1084.3335 1333.4802 671.31779 -1018.02
       200  -258511.11 0.031001303 -1114.4166 -937.04995 340.49865 228.57733 272.41299 -144.4294
       400  -258511.15 0.0039132475 -1048.8644 -1006.9944 340.30847 96.409316 23.072264 -19.607979
       600  -258511.15 0.0004076918 -1042.4194 -1014.7371 339.72279 87.277287 5.5820996 -7.1015594
       800  -258511.15 0.00033941968 -1039.7598 -1017.3777 339.75852 80.745775 -6.7402201 -2.1315365
      1000  -258511.15 0.00033785609 -1041.8039 -1015.2275 339.72379 82.529463 -3.467727 -6.0750137
      1200  -258511.15 0.00030897126 -1042.5167 -1014.5076 339.72991 85.291958 1.6639854 -7.4670506
      1400  -258511.15 0.0001762366 -1039.885 -1017.1853 339.82643 86.283402 3.5602721 -2.4891365
      1561  -258511.15 9.9768737e-05 -1039.1566 -1017.9189 339.83602 85.560388 2.2071152 -1.1165924
Loop time of 300.311 on 1 procs for 1561 steps with 58320 atoms

98.4% CPU use with 1 MPI tasks x 1 OpenMP threads

Minimization stats:
  Stopping criterion = force tolerance
  Energy initial, next-to-last, final = 
     -258259.575751221  -258511.152311749  -258511.152311722
  Force two-norm initial, final = 21.296889 9.9768737e-05
  Force max component initial, final = 0.87687655 2.6395962e-06
  Final line search alpha, max atom move = 0 0
  Iterations, force evaluations = 1561 1564

MPI task timing breakdown:
Section |  min time  |  avg time  |  max time  |%varavg| %total
---------------------------------------------------------------
Pair    | 296.62     | 296.62     | 296.62     |   0.0 | 98.77
Neigh   | 0.28488    | 0.28488    | 0.28488    |   0.0 |  0.09
Comm    | 0.86243    | 0.86243    | 0.86243    |   0.0 |  0.29
Output  | 0.003645   | 0.003645   | 0.003645   |   0.0 |  0.00
Modify  | 0.12048    | 0.12048    | 0.12048    |   0.0 |  0.04
Other   |            | 2.421      |            |       |  0.81

Nlocal:          58320 ave       58320 max       58320 min
Histogram: 1 0 0 0 0 0 0 0 0 0
Nghost:          45284 ave       45284 max       45284 min
Histogram: 1 0 0 0 0 0 0 0 0 0
Neighs:    7.07136e+06 ave 7.07136e+06 max 7.07136e+06 min
Histogram: 1 0 0 0 0 0 0 0 0 0
FullNghs:            0 ave           0 max           0 min
Histogram: 1 0 0 0 0 0 0 0 0 0

Total # of neighbors = 7071360
Ave neighs/atom = 121.25103
Neighbor list builds = 1
Dangerous builds = 0

print           "RESULT ${name} ${variant} pe $(pe:%.6f) fnorm $(fnorm:%.3e) pxx $(pxx:%.2f) pyy $(pyy:%.2f) pzz $(pzz:%.2f) pxy $(pxy:%.2f) pxz $(pxz:%.2f) pyz $(pyz:%.2f) lx $(lx:%.6f) ly $(ly:%.6f) xy $(xy:%.6f)"
RESULT Ni_60deg_x-211_y0-11_z111 corrected pe -258511.152312 fnorm 9.977e-05 pxx -1039.16 pyy -1017.92 pzz 339.84 pxy 85.56 pxz 2.21 pyz -1.12 lx 29.868189 ly 145.499690 xy -0.622254
write_dump      all custom ${outdir}/relaxed_${name}_${variant}_stress-tensor.dump id type x y z c_pe c_s[1] c_s[2] c_s[3] c_s[4] c_s[5] c_s[6] c_cna                 modify format float %.6g
write_dump      all custom out/relaxed/relaxed_${name}_${variant}_stress-tensor.dump id type x y z c_pe c_s[1] c_s[2] c_s[3] c_s[4] c_s[5] c_s[6] c_cna                 modify format float %.6g
write_dump      all custom out/relaxed/relaxed_Ni_60deg_x-211_y0-11_z111_${variant}_stress-tensor.dump id type x y z c_pe c_s[1] c_s[2] c_s[3] c_s[4] c_s[5] c_s[6] c_cna                 modify format float %.6g
write_dump      all custom out/relaxed/relaxed_Ni_60deg_x-211_y0-11_z111_corrected_stress-tensor.dump id type x y z c_pe c_s[1] c_s[2] c_s[3] c_s[4] c_s[5] c_s[6] c_cna                 modify format float %.6g
write_data      ${outdir}/relaxed_${name}_${variant}.lmp nocoeff
write_data      out/relaxed/relaxed_${name}_${variant}.lmp nocoeff
write_data      out/relaxed/relaxed_Ni_60deg_x-211_y0-11_z111_${variant}.lmp nocoeff
write_data      out/relaxed/relaxed_Ni_60deg_x-211_y0-11_z111_corrected.lmp nocoeff
System init for write_data ...
print           "ALL PHASES COMPLETE"
ALL PHASES COMPLETE
Total wall time: 0:05:01
