LAMMPS (22 Jul 2025 - Update 4)
OMP_NUM_THREADS environment is not set. Defaulting to 1 thread.
  using 1 OpenMP thread(s) per MPI task
# Relax one dislocation in a p p s slab (x glide direction, y line, z glide-plane normal).
# Required -var:  name      cell basename (…_cut.lmp in celldir)
#                 celldir   directory with the cut cell and box-correction_<name>.lmp
#                 outdir    output directory
#                 pot       eam/alloy file;  elem  element name in it
#                 corr      0 = box as built (uncorrected),  1 = corrected period vector (Lx', delta)
# corr 1 reads <name>_corrected-period-vector.lmp from apply_period_vector.py: a TRICLINIC cell in the
# frame X = line, Y = -glide, Z = normal (LAMMPS can only tilt its second box vector, see that script).
units           metal
atom_style      atomic
boundary        p p s
if "${corr} == 1" then   "read_data ${celldir}/${name}_corrected-period-vector.lmp"   "variable variant string corrected" else   "read_data ${celldir}/${name}_cut.lmp"   "variable variant string uncorrected"
read_data ${celldir}/${name}_cut.lmp
read_data out/cells/${name}_cut.lmp
read_data out/cells/Ni_60deg_x-211_y0-11_z111_cut.lmp
Reading data file ...
  orthogonal box = (0 0 0) to (146.57747 29.868189 146.32365)
  1 by 1 by 1 MPI processor grid
  reading atoms ...
  58320 atoms
  read_data CPU = 0.170 seconds
variable variant string uncorrected
include         ${celldir}/box-correction_${name}.lmp
include         out/cells/box-correction_${name}.lmp
include         out/cells/box-correction_Ni_60deg_x-211_y0-11_z111.lmp
# written by build_single_dislocation_cell.py for Ni_60deg_x-211_y0-11_z111
variable Lx_built  equal 146.5774652081
variable Lx_corr   equal 145.4996897287   # = (L_top + L_bot)/2
variable xy_corr   equal 0.6222539674   # = <dU_y> over the halves
variable z_glide   equal 72.1457000000
variable x_line    equal 73.2887326041
variable z_fix_lo  equal 5.796819   # 3 (111) layers per face held in z
variable z_fix_hi  equal 138.494560
variable b_edge    equal 2.1555509736
variable b_screw   equal 1.2445079349

pair_style      eam/alloy
pair_coeff      * * ${pot} ${elem}
pair_coeff      * * Cu_Ni_Fischer_2018.eam.alloy ${elem}
pair_coeff      * * Cu_Ni_Fischer_2018.eam.alloy Ni

# 2D-dynamic boundary (Rodney): the 3 outermost (111) layers per z-face move only in x and y
region          r_lo block INF INF INF INF INF ${z_fix_lo} units box
region          r_lo block INF INF INF INF INF 5.796819 units box
region          r_hi block INF INF INF INF ${z_fix_hi} INF units box
region          r_hi block INF INF INF INF 138.49456 INF units box
group           g_lo region r_lo
2448 atoms in group g_lo
group           g_hi region r_hi
2412 atoms in group g_hi
group           g_surf union g_lo g_hi
4860 atoms in group g_surf
fix             f_2d g_surf setforce NULL NULL 0.0

compute         pe all pe/atom
compute         s all stress/atom NULL
compute         cna all cna/atom 3.006
thermo          200
thermo_style    custom step pe fnorm pxx pyy pzz pxy pxz pyz
thermo_modify   format float %.8g

min_style       fire
minimize        0.0 1.0e-4 50000 100000
Neighbor list info ...
  update: every = 1 steps, delay = 0 steps, check = yes
  max neighbors/atom: 2000, page size: 100000
  master list distance cutoff = 8.724884
  ghost atom cutoff = 8.724884
  binsize = 4.362442, bins = 34 7 34
  2 neighbor lists, perpetual/occasional/extra = 1 1 0
  (1) pair eam/alloy, perpetual
      attributes: half, newton on
      pair build: half/bin/atomonly/newton
      stencil: half/bin/3d
      bin: standard
  (2) compute cna/atom, occasional
      attributes: full, newton on
      pair build: full/bin/atomonly
      stencil: full/bin/3d
      bin: standard
  Parameters for fire:
    dmax  delaystep dtgrow dtshrink alpha0 alphashrink tmax tmin   integrator   halfstepback   abcfire  
     0.1     20      1.1     0.5     0.25     0.99      10  0.02 eulerimplicit      yes          no     
Per MPI rank memory allocation (min/avg/max) = 58.02 | 58.02 | 58.02 Mbytes
   Step         PotEng         Fnorm           Pxx            Pyy            Pzz            Pxy            Pxz            Pyz      
         0  -258233.25 20.905083 -20270.558 -8415.2157 -5976.099 2714.2707 -1731.2604 -940.96973
       200  -258472.77 0.05046403 -23585.533 -11139.412 -6739.6736 3525.5542 -699.93249 -607.61125
       400  -258473.08 0.0045965142 -23222.651 -11539.913 -6767.0573 3202.111 53.179768 -18.079534
       600  -258473.08 0.00057511834 -23245.476 -11517.6 -6767.0794 3193.9833 9.2138818 -2.132355
       800  -258473.08 0.00052010302 -23245.051 -11517.848 -6767.0034 3196.8255 9.9691371 -7.6356524
       975  -258473.08 9.7715406e-05 -23248.917 -11513.866 -6766.7984 3193.2194 2.0796874 -0.66722189
Loop time of 186.009 on 1 procs for 975 steps with 58320 atoms

98.5% CPU use with 1 MPI tasks x 1 OpenMP threads

Minimization stats:
  Stopping criterion = force tolerance
  Energy initial, next-to-last, final = 
     -258233.250100677  -258473.079203399  -258473.079203825
  Force two-norm initial, final = 20.905083 9.7715406e-05
  Force max component initial, final = 0.88123613 1.3903731e-06
  Final line search alpha, max atom move = 0 0
  Iterations, force evaluations = 975 977

MPI task timing breakdown:
Section |  min time  |  avg time  |  max time  |%varavg| %total
---------------------------------------------------------------
Pair    | 183.87     | 183.87     | 183.87     |   0.0 | 98.85
Neigh   | 0.14575    | 0.14575    | 0.14575    |   0.0 |  0.08
Comm    | 0.45595    | 0.45595    | 0.45595    |   0.0 |  0.25
Output  | 0.0017126  | 0.0017126  | 0.0017126  |   0.0 |  0.00
Modify  | 0.077963   | 0.077963   | 0.077963   |   0.0 |  0.04
Other   |            | 1.46       |            |       |  0.79

Nlocal:          58320 ave       58320 max       58320 min
Histogram: 1 0 0 0 0 0 0 0 0 0
Nghost:          46654 ave       46654 max       46654 min
Histogram: 1 0 0 0 0 0 0 0 0 0
Neighs:    7.02448e+06 ave 7.02448e+06 max 7.02448e+06 min
Histogram: 1 0 0 0 0 0 0 0 0 0
FullNghs:            0 ave           0 max           0 min
Histogram: 1 0 0 0 0 0 0 0 0 0

Total # of neighbors = 7024476
Ave neighs/atom = 120.44712
Neighbor list builds = 1
Dangerous builds = 0

print           "RESULT ${name} ${variant} pe $(pe:%.6f) fnorm $(fnorm:%.3e) pxx $(pxx:%.2f) pyy $(pyy:%.2f) pzz $(pzz:%.2f) pxy $(pxy:%.2f) pxz $(pxz:%.2f) pyz $(pyz:%.2f) lx $(lx:%.6f) ly $(ly:%.6f) xy $(xy:%.6f)"
RESULT Ni_60deg_x-211_y0-11_z111 uncorrected pe -258473.079204 fnorm 9.772e-05 pxx -23248.92 pyy -11513.87 pzz -6766.80 pxy 3193.22 pxz 2.08 pyz -0.67 lx 146.577465 ly 29.868189 xy 0.000000
write_dump      all custom ${outdir}/relaxed_${name}_${variant}_stress-tensor.dump id type x y z c_pe c_s[1] c_s[2] c_s[3] c_s[4] c_s[5] c_s[6] c_cna                 modify format float %.6g
write_dump      all custom out/relaxed/relaxed_${name}_${variant}_stress-tensor.dump id type x y z c_pe c_s[1] c_s[2] c_s[3] c_s[4] c_s[5] c_s[6] c_cna                 modify format float %.6g
write_dump      all custom out/relaxed/relaxed_Ni_60deg_x-211_y0-11_z111_${variant}_stress-tensor.dump id type x y z c_pe c_s[1] c_s[2] c_s[3] c_s[4] c_s[5] c_s[6] c_cna                 modify format float %.6g
write_dump      all custom out/relaxed/relaxed_Ni_60deg_x-211_y0-11_z111_uncorrected_stress-tensor.dump id type x y z c_pe c_s[1] c_s[2] c_s[3] c_s[4] c_s[5] c_s[6] c_cna                 modify format float %.6g
write_data      ${outdir}/relaxed_${name}_${variant}.lmp nocoeff
write_data      out/relaxed/relaxed_${name}_${variant}.lmp nocoeff
write_data      out/relaxed/relaxed_Ni_60deg_x-211_y0-11_z111_${variant}.lmp nocoeff
write_data      out/relaxed/relaxed_Ni_60deg_x-211_y0-11_z111_uncorrected.lmp nocoeff
System init for write_data ...
print           "ALL PHASES COMPLETE"
ALL PHASES COMPLETE
Total wall time: 0:03:07
